**
** PARTS
**
*Part, Name=Soil
** Mesh converted from numgeo mesh_Soil.inp
** Only the element type is changed: u8-solid-ax -> CAX8
*Node
1, 1, 0
2, 0, 0
3, 1, 10
4, 0, 10
5, 10, 0
6, 10, 10
7, 0.8, 0
8, 0.6, 0
9, 0.4, 0
10, 0.2, 0
11, 1, 9.8
12, 1, 9.6
13, 1, 9.4
14, 1, 9.2
15, 1, 9
16, 1, 8.8
17, 1, 8.6
18, 1, 8.4
19, 1, 8.2
20, 1, 8
21, 1, 7.8
22, 1, 7.6
23, 1, 7.4
24, 1, 7.2
25, 1, 7
26, 1, 6.8
27, 1, 6.6
28, 1, 6.4
29, 1, 6.2
30, 1, 6
31, 1, 5.8
32, 1, 5.6
33, 1, 5.4
34, 1, 5.2
35, 1, 5
36, 1, 4.8
37, 1, 4.6
38, 1, 4.4
39, 1, 4.2
40, 1, 4
41, 1, 3.8
42, 1, 3.6
43, 1, 3.4
44, 1, 3.2
45, 1, 3
46, 1, 2.8
47, 1, 2.6
48, 1, 2.4
49, 1, 2.2
50, 1, 2
51, 1, 1.8
52, 1, 1.6
53, 1, 1.4
54, 1, 1.2
55, 1, 1
56, 1, 0.8
57, 1, 0.6
58, 1, 0.4
59, 1, 0.2
60, 0.2, 10
61, 0.4, 10
62, 0.6, 10
63, 0.8, 10
64, 0, 0.2
65, 0, 0.4
66, 0, 0.6
67, 0, 0.8
68, 0, 1
69, 0, 1.2
70, 0, 1.4
71, 0, 1.6
72, 0, 1.8
73, 0, 2
74, 0, 2.2
75, 0, 2.4
76, 0, 2.6
77, 0, 2.8
78, 0, 3
79, 0, 3.2
80, 0, 3.4
81, 0, 3.6
82, 0, 3.8
83, 0, 4
84, 0, 4.2
85, 0, 4.4
86, 0, 4.6
87, 0, 4.8
88, 0, 5
89, 0, 5.2
90, 0, 5.4
91, 0, 5.6
92, 0, 5.8
93, 0, 6
94, 0, 6.2
95, 0, 6.4
96, 0, 6.6
97, 0, 6.8
98, 0, 7
99, 0, 7.2
100, 0, 7.4
101, 0, 7.6
102, 0, 7.8
103, 0, 8
104, 0, 8.2
105, 0, 8.4
106, 0, 8.6
107, 0, 8.8
108, 0, 9
109, 0, 9.2
110, 0, 9.4
111, 0, 9.6
112, 0, 9.8
113, 9.8, 0
114, 9.6, 0
115, 9.4, 0
116, 9.2, 0
117, 9, 0
118, 8.8, 0
119, 8.6, 0
120, 8.4, 0
121, 8.2, 0
122, 8, 0
123, 7.8, 0
124, 7.6, 0
125, 7.4, 0
126, 7.2, 0
127, 7, 0
128, 6.8, 0
129, 6.6, 0
130, 6.4, 0
131, 6.2, 0
132, 6, 0
133, 5.8, 0
134, 5.6, 0
135, 5.4, 0
136, 5.2, 0
137, 5, 0
138, 4.8, 0
139, 4.6, 0
140, 4.4, 0
141, 4.2, 0
142, 4, 0
143, 3.8, 0
144, 3.6, 0
145, 3.4, 0
146, 3.2, 0
147, 3, 0
148, 2.8, 0
149, 2.6, 0
150, 2.4, 0
151, 2.2, 0
152, 2, 0
153, 1.8, 0
154, 1.6, 0
155, 1.4, 0
156, 1.2, 0
157, 10, 9.8
158, 10, 9.6
159, 10, 9.4
160, 10, 9.2
161, 10, 9
162, 10, 8.8
163, 10, 8.6
164, 10, 8.4
165, 10, 8.2
166, 10, 8
167, 10, 7.8
168, 10, 7.6
169, 10, 7.4
170, 10, 7.2
171, 10, 7
172, 10, 6.8
173, 10, 6.6
174, 10, 6.4
175, 10, 6.2
176, 10, 6
177, 10, 5.8
178, 10, 5.6
179, 10, 5.4
180, 10, 5.2
181, 10, 5
182, 10, 4.8
183, 10, 4.6
184, 10, 4.4
185, 10, 4.2
186, 10, 4
187, 10, 3.8
188, 10, 3.6
189, 10, 3.4
190, 10, 3.2
191, 10, 3
192, 10, 2.8
193, 10, 2.6
194, 10, 2.4
195, 10, 2.2
196, 10, 2
197, 10, 1.8
198, 10, 1.6
199, 10, 1.4
200, 10, 1.2
201, 10, 1
202, 10, 0.8
203, 10, 0.6
204, 10, 0.4
205, 10, 0.2
206, 1.2, 10
207, 1.4, 10
208, 1.6, 10
209, 1.8, 10
210, 2, 10
211, 2.2, 10
212, 2.4, 10
213, 2.6, 10
214, 2.8, 10
215, 3, 10
216, 3.2, 10
217, 3.4, 10
218, 3.6, 10
219, 3.8, 10
220, 4, 10
221, 4.2, 10
222, 4.4, 10
223, 4.6, 10
224, 4.8, 10
225, 5, 10
226, 5.2, 10
227, 5.4, 10
228, 5.6, 10
229, 5.8, 10
230, 6, 10
231, 6.2, 10
232, 6.4, 10
233, 6.6, 10
234, 6.8, 10
235, 7, 10
236, 7.2, 10
237, 7.4, 10
238, 7.6, 10
239, 7.8, 10
240, 8, 10
241, 8.2, 10
242, 8.4, 10
243, 8.6, 10
244, 8.8, 10
245, 9, 10
246, 9.2, 10
247, 9.4, 10
248, 9.6, 10
249, 9.8, 10
250, 0.8, 0.2
251, 0.8, 0.4
252, 0.8, 0.6
253, 0.8, 0.8
254, 0.8, 1
255, 0.8, 1.2
256, 0.8, 1.4
257, 0.8, 1.6
258, 0.8, 1.8
259, 0.8, 2
260, 0.8, 2.2
261, 0.8, 2.4
262, 0.8, 2.6
263, 0.8, 2.8
264, 0.8, 3
265, 0.8, 3.2
266, 0.8, 3.4
267, 0.8, 3.6
268, 0.8, 3.8
269, 0.8, 4
270, 0.8, 4.2
271, 0.8, 4.4
272, 0.8, 4.6
273, 0.8, 4.8
274, 0.8, 5
275, 0.8, 5.2
276, 0.8, 5.4
277, 0.8, 5.6
278, 0.8, 5.8
279, 0.8, 6
280, 0.8, 6.2
281, 0.8, 6.4
282, 0.8, 6.6
283, 0.8, 6.8
284, 0.8, 7
285, 0.8, 7.2
286, 0.8, 7.4
287, 0.8, 7.6
288, 0.8, 7.8
289, 0.8, 8
290, 0.8, 8.2
291, 0.8, 8.4
292, 0.8, 8.6
293, 0.8, 8.8
294, 0.8, 9
295, 0.8, 9.2
296, 0.8, 9.4
297, 0.8, 9.6
298, 0.8, 9.8
299, 0.6, 0.2
300, 0.6, 0.4
301, 0.6, 0.6
302, 0.6, 0.8
303, 0.6, 1
304, 0.6, 1.2
305, 0.6, 1.4
306, 0.6, 1.6
307, 0.6, 1.8
308, 0.6, 2
309, 0.6, 2.2
310, 0.6, 2.4
311, 0.6, 2.6
312, 0.6, 2.8
313, 0.6, 3
314, 0.6, 3.2
315, 0.6, 3.4
316, 0.6, 3.6
317, 0.6, 3.8
318, 0.6, 4
319, 0.6, 4.2
320, 0.6, 4.4
321, 0.6, 4.6
322, 0.6, 4.8
323, 0.6, 5
324, 0.6, 5.2
325, 0.6, 5.4
326, 0.6, 5.6
327, 0.6, 5.8
328, 0.6, 6
329, 0.6, 6.2
330, 0.6, 6.4
331, 0.6, 6.6
332, 0.6, 6.8
333, 0.6, 7
334, 0.6, 7.2
335, 0.6, 7.4
336, 0.6, 7.6
337, 0.6, 7.8
338, 0.6, 8
339, 0.6, 8.2
340, 0.6, 8.4
341, 0.6, 8.6
342, 0.6, 8.8
343, 0.6, 9
344, 0.6, 9.2
345, 0.6, 9.4
346, 0.6, 9.6
347, 0.6, 9.8
348, 0.4, 0.2
349, 0.4, 0.4
350, 0.4, 0.6
351, 0.4, 0.8
352, 0.4, 1
353, 0.4, 1.2
354, 0.4, 1.4
355, 0.4, 1.6
356, 0.4, 1.8
357, 0.4, 2
358, 0.4, 2.2
359, 0.4, 2.4
360, 0.4, 2.6
361, 0.4, 2.8
362, 0.4, 3
363, 0.4, 3.2
364, 0.4, 3.4
365, 0.4, 3.6
366, 0.4, 3.8
367, 0.4, 4
368, 0.4, 4.2
369, 0.4, 4.4
370, 0.4, 4.6
371, 0.4, 4.8
372, 0.4, 5
373, 0.4, 5.2
374, 0.4, 5.4
375, 0.4, 5.6
376, 0.4, 5.8
377, 0.4, 6
378, 0.4, 6.2
379, 0.4, 6.4
380, 0.4, 6.6
381, 0.4, 6.8
382, 0.4, 7
383, 0.4, 7.2
384, 0.4, 7.4
385, 0.4, 7.6
386, 0.4, 7.8
387, 0.4, 8
388, 0.4, 8.2
389, 0.4, 8.4
390, 0.4, 8.6
391, 0.4, 8.8
392, 0.4, 9
393, 0.4, 9.2
394, 0.4, 9.4
395, 0.4, 9.6
396, 0.4, 9.8
397, 0.2, 0.2
398, 0.2, 0.4
399, 0.2, 0.6
400, 0.2, 0.8
401, 0.2, 1
402, 0.2, 1.2
403, 0.2, 1.4
404, 0.2, 1.6
405, 0.2, 1.8
406, 0.2, 2
407, 0.2, 2.2
408, 0.2, 2.4
409, 0.2, 2.6
410, 0.2, 2.8
411, 0.2, 3
412, 0.2, 3.2
413, 0.2, 3.4
414, 0.2, 3.6
415, 0.2, 3.8
416, 0.2, 4
417, 0.2, 4.2
418, 0.2, 4.4
419, 0.2, 4.6
420, 0.2, 4.8
421, 0.2, 5
422, 0.2, 5.2
423, 0.2, 5.4
424, 0.2, 5.6
425, 0.2, 5.8
426, 0.2, 6
427, 0.2, 6.2
428, 0.2, 6.4
429, 0.2, 6.6
430, 0.2, 6.8
431, 0.2, 7
432, 0.2, 7.2
433, 0.2, 7.4
434, 0.2, 7.6
435, 0.2, 7.8
436, 0.2, 8
437, 0.2, 8.2
438, 0.2, 8.4
439, 0.2, 8.6
440, 0.2, 8.8
441, 0.2, 9
442, 0.2, 9.2
443, 0.2, 9.4
444, 0.2, 9.6
445, 0.2, 9.8
446, 9.8, 0.2
447, 9.8, 0.4
448, 9.8, 0.6
449, 9.8, 0.8
450, 9.8, 1
451, 9.8, 1.2
452, 9.8, 1.4
453, 9.8, 1.6
454, 9.8, 1.8
455, 9.8, 2
456, 9.8, 2.2
457, 9.8, 2.4
458, 9.8, 2.6
459, 9.8, 2.8
460, 9.8, 3
461, 9.8, 3.2
462, 9.8, 3.4
463, 9.8, 3.6
464, 9.8, 3.8
465, 9.8, 4
466, 9.8, 4.2
467, 9.8, 4.4
468, 9.8, 4.6
469, 9.8, 4.8
470, 9.8, 5
471, 9.8, 5.2
472, 9.8, 5.4
473, 9.8, 5.6
474, 9.8, 5.8
475, 9.8, 6
476, 9.8, 6.2
477, 9.8, 6.4
478, 9.8, 6.6
479, 9.8, 6.8
480, 9.8, 7
481, 9.8, 7.2
482, 9.8, 7.4
483, 9.8, 7.6
484, 9.8, 7.8
485, 9.8, 8
486, 9.8, 8.2
487, 9.8, 8.4
488, 9.8, 8.6
489, 9.8, 8.8
490, 9.8, 9
491, 9.8, 9.2
492, 9.8, 9.4
493, 9.8, 9.6
494, 9.8, 9.8
495, 9.6, 0.2
496, 9.6, 0.4
497, 9.6, 0.6
498, 9.6, 0.8
499, 9.6, 1
500, 9.6, 1.2
501, 9.6, 1.4
502, 9.6, 1.6
503, 9.6, 1.8
504, 9.6, 2
505, 9.6, 2.2
506, 9.6, 2.4
507, 9.6, 2.6
508, 9.6, 2.8
509, 9.6, 3
510, 9.6, 3.2
511, 9.6, 3.4
512, 9.6, 3.6
513, 9.6, 3.8
514, 9.6, 4
515, 9.6, 4.2
516, 9.6, 4.4
517, 9.6, 4.6
518, 9.6, 4.8
519, 9.6, 5
520, 9.6, 5.2
521, 9.6, 5.4
522, 9.6, 5.6
523, 9.6, 5.8
524, 9.6, 6
525, 9.6, 6.2
526, 9.6, 6.4
527, 9.6, 6.6
528, 9.6, 6.8
529, 9.6, 7
530, 9.6, 7.2
531, 9.6, 7.4
532, 9.6, 7.6
533, 9.6, 7.8
534, 9.6, 8
535, 9.6, 8.2
536, 9.6, 8.4
537, 9.6, 8.6
538, 9.6, 8.8
539, 9.6, 9
540, 9.6, 9.2
541, 9.6, 9.4
542, 9.6, 9.6
543, 9.6, 9.8
544, 9.4, 0.2
545, 9.4, 0.4
546, 9.4, 0.6
547, 9.4, 0.8
548, 9.4, 1
549, 9.4, 1.2
550, 9.4, 1.4
551, 9.4, 1.6
552, 9.4, 1.8
553, 9.4, 2
554, 9.4, 2.2
555, 9.4, 2.4
556, 9.4, 2.6
557, 9.4, 2.8
558, 9.4, 3
559, 9.4, 3.2
560, 9.4, 3.4
561, 9.4, 3.6
562, 9.4, 3.8
563, 9.4, 4
564, 9.4, 4.2
565, 9.4, 4.4
566, 9.4, 4.6
567, 9.4, 4.8
568, 9.4, 5
569, 9.4, 5.2
570, 9.4, 5.4
571, 9.4, 5.6
572, 9.4, 5.8
573, 9.4, 6
574, 9.4, 6.2
575, 9.4, 6.4
576, 9.4, 6.6
577, 9.4, 6.8
578, 9.4, 7
579, 9.4, 7.2
580, 9.4, 7.4
581, 9.4, 7.6
582, 9.4, 7.8
583, 9.4, 8
584, 9.4, 8.2
585, 9.4, 8.4
586, 9.4, 8.6
587, 9.4, 8.8
588, 9.4, 9
589, 9.4, 9.2
590, 9.4, 9.4
591, 9.4, 9.6
592, 9.4, 9.8
593, 9.2, 0.2
594, 9.2, 0.4
595, 9.2, 0.6
596, 9.2, 0.8
597, 9.2, 1
598, 9.2, 1.2
599, 9.2, 1.4
600, 9.2, 1.6
601, 9.2, 1.8
602, 9.2, 2
603, 9.2, 2.2
604, 9.2, 2.4
605, 9.2, 2.6
606, 9.2, 2.8
607, 9.2, 3
608, 9.2, 3.2
609, 9.2, 3.4
610, 9.2, 3.6
611, 9.2, 3.8
612, 9.2, 4
613, 9.2, 4.2
614, 9.2, 4.4
615, 9.2, 4.6
616, 9.2, 4.8
617, 9.2, 5
618, 9.2, 5.2
619, 9.2, 5.4
620, 9.2, 5.6
621, 9.2, 5.8
622, 9.2, 6
623, 9.2, 6.2
624, 9.2, 6.4
625, 9.2, 6.6
626, 9.2, 6.8
627, 9.2, 7
628, 9.2, 7.2
629, 9.2, 7.4
630, 9.2, 7.6
631, 9.2, 7.8
632, 9.2, 8
633, 9.2, 8.2
634, 9.2, 8.4
635, 9.2, 8.6
636, 9.2, 8.8
637, 9.2, 9
638, 9.2, 9.2
639, 9.2, 9.4
640, 9.2, 9.6
641, 9.2, 9.8
642, 9, 0.2
643, 9, 0.4
644, 9, 0.6
645, 9, 0.8
646, 9, 1
647, 9, 1.2
648, 9, 1.4
649, 9, 1.6
650, 9, 1.8
651, 9, 2
652, 9, 2.2
653, 9, 2.4
654, 9, 2.6
655, 9, 2.8
656, 9, 3
657, 9, 3.2
658, 9, 3.4
659, 9, 3.6
660, 9, 3.8
661, 9, 4
662, 9, 4.2
663, 9, 4.4
664, 9, 4.6
665, 9, 4.8
666, 9, 5
667, 9, 5.2
668, 9, 5.4
669, 9, 5.6
670, 9, 5.8
671, 9, 6
672, 9, 6.2
673, 9, 6.4
674, 9, 6.6
675, 9, 6.8
676, 9, 7
677, 9, 7.2
678, 9, 7.4
679, 9, 7.6
680, 9, 7.8
681, 9, 8
682, 9, 8.2
683, 9, 8.4
684, 9, 8.6
685, 9, 8.8
686, 9, 9
687, 9, 9.2
688, 9, 9.4
689, 9, 9.6
690, 9, 9.8
691, 8.8, 0.2
692, 8.8, 0.4
693, 8.8, 0.6
694, 8.8, 0.8
695, 8.8, 1
696, 8.8, 1.2
697, 8.8, 1.4
698, 8.8, 1.6
699, 8.8, 1.8
700, 8.8, 2
701, 8.8, 2.2
702, 8.8, 2.4
703, 8.8, 2.6
704, 8.8, 2.8
705, 8.8, 3
706, 8.8, 3.2
707, 8.8, 3.4
708, 8.8, 3.6
709, 8.8, 3.8
710, 8.8, 4
711, 8.8, 4.2
712, 8.8, 4.4
713, 8.8, 4.6
714, 8.8, 4.8
715, 8.8, 5
716, 8.8, 5.2
717, 8.8, 5.4
718, 8.8, 5.6
719, 8.8, 5.8
720, 8.8, 6
721, 8.8, 6.2
722, 8.8, 6.4
723, 8.8, 6.6
724, 8.8, 6.8
725, 8.8, 7
726, 8.8, 7.2
727, 8.8, 7.4
728, 8.8, 7.6
729, 8.8, 7.8
730, 8.8, 8
731, 8.8, 8.2
732, 8.8, 8.4
733, 8.8, 8.6
734, 8.8, 8.8
735, 8.8, 9
736, 8.8, 9.2
737, 8.8, 9.4
738, 8.8, 9.6
739, 8.8, 9.8
740, 8.6, 0.2
741, 8.6, 0.4
742, 8.6, 0.6
743, 8.6, 0.8
744, 8.6, 1
745, 8.6, 1.2
746, 8.6, 1.4
747, 8.6, 1.6
748, 8.6, 1.8
749, 8.6, 2
750, 8.6, 2.2
751, 8.6, 2.4
752, 8.6, 2.6
753, 8.6, 2.8
754, 8.6, 3
755, 8.6, 3.2
756, 8.6, 3.4
757, 8.6, 3.6
758, 8.6, 3.8
759, 8.6, 4
760, 8.6, 4.2
761, 8.6, 4.4
762, 8.6, 4.6
763, 8.6, 4.8
764, 8.6, 5
765, 8.6, 5.2
766, 8.6, 5.4
767, 8.6, 5.6
768, 8.6, 5.8
769, 8.6, 6
770, 8.6, 6.2
771, 8.6, 6.4
772, 8.6, 6.6
773, 8.6, 6.8
774, 8.6, 7
775, 8.6, 7.2
776, 8.6, 7.4
777, 8.6, 7.6
778, 8.6, 7.8
779, 8.6, 8
780, 8.6, 8.2
781, 8.6, 8.4
782, 8.6, 8.6
783, 8.6, 8.8
784, 8.6, 9
785, 8.6, 9.2
786, 8.6, 9.4
787, 8.6, 9.6
788, 8.6, 9.8
789, 8.4, 0.2
790, 8.4, 0.4
791, 8.4, 0.6
792, 8.4, 0.8
793, 8.4, 1
794, 8.4, 1.2
795, 8.4, 1.4
796, 8.4, 1.6
797, 8.4, 1.8
798, 8.4, 2
799, 8.4, 2.2
800, 8.4, 2.4
801, 8.4, 2.6
802, 8.4, 2.8
803, 8.4, 3
804, 8.4, 3.2
805, 8.4, 3.4
806, 8.4, 3.6
807, 8.4, 3.8
808, 8.4, 4
809, 8.4, 4.2
810, 8.4, 4.4
811, 8.4, 4.6
812, 8.4, 4.8
813, 8.4, 5
814, 8.4, 5.2
815, 8.4, 5.4
816, 8.4, 5.6
817, 8.4, 5.8
818, 8.4, 6
819, 8.4, 6.2
820, 8.4, 6.4
821, 8.4, 6.6
822, 8.4, 6.8
823, 8.4, 7
824, 8.4, 7.2
825, 8.4, 7.4
826, 8.4, 7.6
827, 8.4, 7.8
828, 8.4, 8
829, 8.4, 8.2
830, 8.4, 8.4
831, 8.4, 8.6
832, 8.4, 8.8
833, 8.4, 9
834, 8.4, 9.2
835, 8.4, 9.4
836, 8.4, 9.6
837, 8.4, 9.8
838, 8.2, 0.2
839, 8.2, 0.4
840, 8.2, 0.6
841, 8.2, 0.8
842, 8.2, 1
843, 8.2, 1.2
844, 8.2, 1.4
845, 8.2, 1.6
846, 8.2, 1.8
847, 8.2, 2
848, 8.2, 2.2
849, 8.2, 2.4
850, 8.2, 2.6
851, 8.2, 2.8
852, 8.2, 3
853, 8.2, 3.2
854, 8.2, 3.4
855, 8.2, 3.6
856, 8.2, 3.8
857, 8.2, 4
858, 8.2, 4.2
859, 8.2, 4.4
860, 8.2, 4.6
861, 8.2, 4.8
862, 8.2, 5
863, 8.2, 5.2
864, 8.2, 5.4
865, 8.2, 5.6
866, 8.2, 5.8
867, 8.2, 6
868, 8.2, 6.2
869, 8.2, 6.4
870, 8.2, 6.6
871, 8.2, 6.8
872, 8.2, 7
873, 8.2, 7.2
874, 8.2, 7.4
875, 8.2, 7.6
876, 8.2, 7.8
877, 8.2, 8
878, 8.2, 8.2
879, 8.2, 8.4
880, 8.2, 8.6
881, 8.2, 8.8
882, 8.2, 9
883, 8.2, 9.2
884, 8.2, 9.4
885, 8.2, 9.6
886, 8.2, 9.8
887, 8, 0.2
888, 8, 0.4
889, 8, 0.6
890, 8, 0.8
891, 8, 1
892, 8, 1.2
893, 8, 1.4
894, 8, 1.6
895, 8, 1.8
896, 8, 2
897, 8, 2.2
898, 8, 2.4
899, 8, 2.6
900, 8, 2.8
901, 8, 3
902, 8, 3.2
903, 8, 3.4
904, 8, 3.6
905, 8, 3.8
906, 8, 4
907, 8, 4.2
908, 8, 4.4
909, 8, 4.6
910, 8, 4.8
911, 8, 5
912, 8, 5.2
913, 8, 5.4
914, 8, 5.6
915, 8, 5.8
916, 8, 6
917, 8, 6.2
918, 8, 6.4
919, 8, 6.6
920, 8, 6.8
921, 8, 7
922, 8, 7.2
923, 8, 7.4
924, 8, 7.6
925, 8, 7.8
926, 8, 8
927, 8, 8.2
928, 8, 8.4
929, 8, 8.6
930, 8, 8.8
931, 8, 9
932, 8, 9.2
933, 8, 9.4
934, 8, 9.6
935, 8, 9.8
936, 7.8, 0.2
937, 7.8, 0.4
938, 7.8, 0.6
939, 7.8, 0.8
940, 7.8, 1
941, 7.8, 1.2
942, 7.8, 1.4
943, 7.8, 1.6
944, 7.8, 1.8
945, 7.8, 2
946, 7.8, 2.2
947, 7.8, 2.4
948, 7.8, 2.6
949, 7.8, 2.8
950, 7.8, 3
951, 7.8, 3.2
952, 7.8, 3.4
953, 7.8, 3.6
954, 7.8, 3.8
955, 7.8, 4
956, 7.8, 4.2
957, 7.8, 4.4
958, 7.8, 4.6
959, 7.8, 4.8
960, 7.8, 5
961, 7.8, 5.2
962, 7.8, 5.4
963, 7.8, 5.6
964, 7.8, 5.8
965, 7.8, 6
966, 7.8, 6.2
967, 7.8, 6.4
968, 7.8, 6.6
969, 7.8, 6.8
970, 7.8, 7
971, 7.8, 7.2
972, 7.8, 7.4
973, 7.8, 7.6
974, 7.8, 7.8
975, 7.8, 8
976, 7.8, 8.2
977, 7.8, 8.4
978, 7.8, 8.6
979, 7.8, 8.8
980, 7.8, 9
981, 7.8, 9.2
982, 7.8, 9.4
983, 7.8, 9.6
984, 7.8, 9.8
985, 7.6, 0.2
986, 7.6, 0.4
987, 7.6, 0.6
988, 7.6, 0.8
989, 7.6, 1
990, 7.6, 1.2
991, 7.6, 1.4
992, 7.6, 1.6
993, 7.6, 1.8
994, 7.6, 2
995, 7.6, 2.2
996, 7.6, 2.4
997, 7.6, 2.6
998, 7.6, 2.8
999, 7.6, 3
1000, 7.6, 3.2
1001, 7.6, 3.4
1002, 7.6, 3.6
1003, 7.6, 3.8
1004, 7.6, 4
1005, 7.6, 4.2
1006, 7.6, 4.4
1007, 7.6, 4.6
1008, 7.6, 4.8
1009, 7.6, 5
1010, 7.6, 5.2
1011, 7.6, 5.4
1012, 7.6, 5.6
1013, 7.6, 5.8
1014, 7.6, 6
1015, 7.6, 6.2
1016, 7.6, 6.4
1017, 7.6, 6.6
1018, 7.6, 6.8
1019, 7.6, 7
1020, 7.6, 7.2
1021, 7.6, 7.4
1022, 7.6, 7.6
1023, 7.6, 7.8
1024, 7.6, 8
1025, 7.6, 8.2
1026, 7.6, 8.4
1027, 7.6, 8.6
1028, 7.6, 8.8
1029, 7.6, 9
1030, 7.6, 9.2
1031, 7.6, 9.4
1032, 7.6, 9.6
1033, 7.6, 9.8
1034, 7.4, 0.2
1035, 7.4, 0.4
1036, 7.4, 0.6
1037, 7.4, 0.8
1038, 7.4, 1
1039, 7.4, 1.2
1040, 7.4, 1.4
1041, 7.4, 1.6
1042, 7.4, 1.8
1043, 7.4, 2
1044, 7.4, 2.2
1045, 7.4, 2.4
1046, 7.4, 2.6
1047, 7.4, 2.8
1048, 7.4, 3
1049, 7.4, 3.2
1050, 7.4, 3.4
1051, 7.4, 3.6
1052, 7.4, 3.8
1053, 7.4, 4
1054, 7.4, 4.2
1055, 7.4, 4.4
1056, 7.4, 4.6
1057, 7.4, 4.8
1058, 7.4, 5
1059, 7.4, 5.2
1060, 7.4, 5.4
1061, 7.4, 5.6
1062, 7.4, 5.8
1063, 7.4, 6
1064, 7.4, 6.2
1065, 7.4, 6.4
1066, 7.4, 6.6
1067, 7.4, 6.8
1068, 7.4, 7
1069, 7.4, 7.2
1070, 7.4, 7.4
1071, 7.4, 7.6
1072, 7.4, 7.8
1073, 7.4, 8
1074, 7.4, 8.2
1075, 7.4, 8.4
1076, 7.4, 8.6
1077, 7.4, 8.8
1078, 7.4, 9
1079, 7.4, 9.2
1080, 7.4, 9.4
1081, 7.4, 9.6
1082, 7.4, 9.8
1083, 7.2, 0.2
1084, 7.2, 0.4
1085, 7.2, 0.6
1086, 7.2, 0.8
1087, 7.2, 1
1088, 7.2, 1.2
1089, 7.2, 1.4
1090, 7.2, 1.6
1091, 7.2, 1.8
1092, 7.2, 2
1093, 7.2, 2.2
1094, 7.2, 2.4
1095, 7.2, 2.6
1096, 7.2, 2.8
1097, 7.2, 3
1098, 7.2, 3.2
1099, 7.2, 3.4
1100, 7.2, 3.6
1101, 7.2, 3.8
1102, 7.2, 4
1103, 7.2, 4.2
1104, 7.2, 4.4
1105, 7.2, 4.6
1106, 7.2, 4.8
1107, 7.2, 5
1108, 7.2, 5.2
1109, 7.2, 5.4
1110, 7.2, 5.6
1111, 7.2, 5.8
1112, 7.2, 6
1113, 7.2, 6.2
1114, 7.2, 6.4
1115, 7.2, 6.6
1116, 7.2, 6.8
1117, 7.2, 7
1118, 7.2, 7.2
1119, 7.2, 7.4
1120, 7.2, 7.6
1121, 7.2, 7.8
1122, 7.2, 8
1123, 7.2, 8.2
1124, 7.2, 8.4
1125, 7.2, 8.6
1126, 7.2, 8.8
1127, 7.2, 9
1128, 7.2, 9.2
1129, 7.2, 9.4
1130, 7.2, 9.6
1131, 7.2, 9.8
1132, 7, 0.2
1133, 7, 0.4
1134, 7, 0.6
1135, 7, 0.8
1136, 7, 1
1137, 7, 1.2
1138, 7, 1.4
1139, 7, 1.6
1140, 7, 1.8
1141, 7, 2
1142, 7, 2.2
1143, 7, 2.4
1144, 7, 2.6
1145, 7, 2.8
1146, 7, 3
1147, 7, 3.2
1148, 7, 3.4
1149, 7, 3.6
1150, 7, 3.8
1151, 7, 4
1152, 7, 4.2
1153, 7, 4.4
1154, 7, 4.6
1155, 7, 4.8
1156, 7, 5
1157, 7, 5.2
1158, 7, 5.4
1159, 7, 5.6
1160, 7, 5.8
1161, 7, 6
1162, 7, 6.2
1163, 7, 6.4
1164, 7, 6.6
1165, 7, 6.8
1166, 7, 7
1167, 7, 7.2
1168, 7, 7.4
1169, 7, 7.6
1170, 7, 7.8
1171, 7, 8
1172, 7, 8.2
1173, 7, 8.4
1174, 7, 8.6
1175, 7, 8.8
1176, 7, 9
1177, 7, 9.2
1178, 7, 9.4
1179, 7, 9.6
1180, 7, 9.8
1181, 6.8, 0.2
1182, 6.8, 0.4
1183, 6.8, 0.6
1184, 6.8, 0.8
1185, 6.8, 1
1186, 6.8, 1.2
1187, 6.8, 1.4
1188, 6.8, 1.6
1189, 6.8, 1.8
1190, 6.8, 2
1191, 6.8, 2.2
1192, 6.8, 2.4
1193, 6.8, 2.6
1194, 6.8, 2.8
1195, 6.8, 3
1196, 6.8, 3.2
1197, 6.8, 3.4
1198, 6.8, 3.6
1199, 6.8, 3.8
1200, 6.8, 4
1201, 6.8, 4.2
1202, 6.8, 4.4
1203, 6.8, 4.6
1204, 6.8, 4.8
1205, 6.8, 5
1206, 6.8, 5.2
1207, 6.8, 5.4
1208, 6.8, 5.6
1209, 6.8, 5.8
1210, 6.8, 6
1211, 6.8, 6.2
1212, 6.8, 6.4
1213, 6.8, 6.6
1214, 6.8, 6.8
1215, 6.8, 7
1216, 6.8, 7.2
1217, 6.8, 7.4
1218, 6.8, 7.6
1219, 6.8, 7.8
1220, 6.8, 8
1221, 6.8, 8.2
1222, 6.8, 8.4
1223, 6.8, 8.6
1224, 6.8, 8.8
1225, 6.8, 9
1226, 6.8, 9.2
1227, 6.8, 9.4
1228, 6.8, 9.6
1229, 6.8, 9.8
1230, 6.6, 0.2
1231, 6.6, 0.4
1232, 6.6, 0.6
1233, 6.6, 0.8
1234, 6.6, 1
1235, 6.6, 1.2
1236, 6.6, 1.4
1237, 6.6, 1.6
1238, 6.6, 1.8
1239, 6.6, 2
1240, 6.6, 2.2
1241, 6.6, 2.4
1242, 6.6, 2.6
1243, 6.6, 2.8
1244, 6.6, 3
1245, 6.6, 3.2
1246, 6.6, 3.4
1247, 6.6, 3.6
1248, 6.6, 3.8
1249, 6.6, 4
1250, 6.6, 4.2
1251, 6.6, 4.4
1252, 6.6, 4.6
1253, 6.6, 4.8
1254, 6.6, 5
1255, 6.6, 5.2
1256, 6.6, 5.4
1257, 6.6, 5.6
1258, 6.6, 5.8
1259, 6.6, 6
1260, 6.6, 6.2
1261, 6.6, 6.4
1262, 6.6, 6.6
1263, 6.6, 6.8
1264, 6.6, 7
1265, 6.6, 7.2
1266, 6.6, 7.4
1267, 6.6, 7.6
1268, 6.6, 7.8
1269, 6.6, 8
1270, 6.6, 8.2
1271, 6.6, 8.4
1272, 6.6, 8.6
1273, 6.6, 8.8
1274, 6.6, 9
1275, 6.6, 9.2
1276, 6.6, 9.4
1277, 6.6, 9.6
1278, 6.6, 9.8
1279, 6.4, 0.2
1280, 6.4, 0.4
1281, 6.4, 0.6
1282, 6.4, 0.8
1283, 6.4, 1
1284, 6.4, 1.2
1285, 6.4, 1.4
1286, 6.4, 1.6
1287, 6.4, 1.8
1288, 6.4, 2
1289, 6.4, 2.2
1290, 6.4, 2.4
1291, 6.4, 2.6
1292, 6.4, 2.8
1293, 6.4, 3
1294, 6.4, 3.2
1295, 6.4, 3.4
1296, 6.4, 3.6
1297, 6.4, 3.8
1298, 6.4, 4
1299, 6.4, 4.2
1300, 6.4, 4.4
1301, 6.4, 4.6
1302, 6.4, 4.8
1303, 6.4, 5
1304, 6.4, 5.2
1305, 6.4, 5.4
1306, 6.4, 5.6
1307, 6.4, 5.8
1308, 6.4, 6
1309, 6.4, 6.2
1310, 6.4, 6.4
1311, 6.4, 6.6
1312, 6.4, 6.8
1313, 6.4, 7
1314, 6.4, 7.2
1315, 6.4, 7.4
1316, 6.4, 7.6
1317, 6.4, 7.8
1318, 6.4, 8
1319, 6.4, 8.2
1320, 6.4, 8.4
1321, 6.4, 8.6
1322, 6.4, 8.8
1323, 6.4, 9
1324, 6.4, 9.2
1325, 6.4, 9.4
1326, 6.4, 9.6
1327, 6.4, 9.8
1328, 6.2, 0.2
1329, 6.2, 0.4
1330, 6.2, 0.6
1331, 6.2, 0.8
1332, 6.2, 1
1333, 6.2, 1.2
1334, 6.2, 1.4
1335, 6.2, 1.6
1336, 6.2, 1.8
1337, 6.2, 2
1338, 6.2, 2.2
1339, 6.2, 2.4
1340, 6.2, 2.6
1341, 6.2, 2.8
1342, 6.2, 3
1343, 6.2, 3.2
1344, 6.2, 3.4
1345, 6.2, 3.6
1346, 6.2, 3.8
1347, 6.2, 4
1348, 6.2, 4.2
1349, 6.2, 4.4
1350, 6.2, 4.6
1351, 6.2, 4.8
1352, 6.2, 5
1353, 6.2, 5.2
1354, 6.2, 5.4
1355, 6.2, 5.6
1356, 6.2, 5.8
1357, 6.2, 6
1358, 6.2, 6.2
1359, 6.2, 6.4
1360, 6.2, 6.6
1361, 6.2, 6.8
1362, 6.2, 7
1363, 6.2, 7.2
1364, 6.2, 7.4
1365, 6.2, 7.6
1366, 6.2, 7.8
1367, 6.2, 8
1368, 6.2, 8.2
1369, 6.2, 8.4
1370, 6.2, 8.6
1371, 6.2, 8.8
1372, 6.2, 9
1373, 6.2, 9.2
1374, 6.2, 9.4
1375, 6.2, 9.6
1376, 6.2, 9.8
1377, 6, 0.2
1378, 6, 0.4
1379, 6, 0.6
1380, 6, 0.8
1381, 6, 1
1382, 6, 1.2
1383, 6, 1.4
1384, 6, 1.6
1385, 6, 1.8
1386, 6, 2
1387, 6, 2.2
1388, 6, 2.4
1389, 6, 2.6
1390, 6, 2.8
1391, 6, 3
1392, 6, 3.2
1393, 6, 3.4
1394, 6, 3.6
1395, 6, 3.8
1396, 6, 4
1397, 6, 4.2
1398, 6, 4.4
1399, 6, 4.6
1400, 6, 4.8
1401, 6, 5
1402, 6, 5.2
1403, 6, 5.4
1404, 6, 5.6
1405, 6, 5.8
1406, 6, 6
1407, 6, 6.2
1408, 6, 6.4
1409, 6, 6.6
1410, 6, 6.8
1411, 6, 7
1412, 6, 7.2
1413, 6, 7.4
1414, 6, 7.6
1415, 6, 7.8
1416, 6, 8
1417, 6, 8.2
1418, 6, 8.4
1419, 6, 8.6
1420, 6, 8.8
1421, 6, 9
1422, 6, 9.2
1423, 6, 9.4
1424, 6, 9.6
1425, 6, 9.8
1426, 5.8, 0.2
1427, 5.8, 0.4
1428, 5.8, 0.6
1429, 5.8, 0.8
1430, 5.8, 1
1431, 5.8, 1.2
1432, 5.8, 1.4
1433, 5.8, 1.6
1434, 5.8, 1.8
1435, 5.8, 2
1436, 5.8, 2.2
1437, 5.8, 2.4
1438, 5.8, 2.6
1439, 5.8, 2.8
1440, 5.8, 3
1441, 5.8, 3.2
1442, 5.8, 3.4
1443, 5.8, 3.6
1444, 5.8, 3.8
1445, 5.8, 4
1446, 5.8, 4.2
1447, 5.8, 4.4
1448, 5.8, 4.6
1449, 5.8, 4.8
1450, 5.8, 5
1451, 5.8, 5.2
1452, 5.8, 5.4
1453, 5.8, 5.6
1454, 5.8, 5.8
1455, 5.8, 6
1456, 5.8, 6.2
1457, 5.8, 6.4
1458, 5.8, 6.6
1459, 5.8, 6.8
1460, 5.8, 7
1461, 5.8, 7.2
1462, 5.8, 7.4
1463, 5.8, 7.6
1464, 5.8, 7.8
1465, 5.8, 8
1466, 5.8, 8.2
1467, 5.8, 8.4
1468, 5.8, 8.6
1469, 5.8, 8.8
1470, 5.8, 9
1471, 5.8, 9.2
1472, 5.8, 9.4
1473, 5.8, 9.6
1474, 5.8, 9.8
1475, 5.6, 0.2
1476, 5.6, 0.4
1477, 5.6, 0.6
1478, 5.6, 0.8
1479, 5.6, 1
1480, 5.6, 1.2
1481, 5.6, 1.4
1482, 5.6, 1.6
1483, 5.6, 1.8
1484, 5.6, 2
1485, 5.6, 2.2
1486, 5.6, 2.4
1487, 5.6, 2.6
1488, 5.6, 2.8
1489, 5.6, 3
1490, 5.6, 3.2
1491, 5.6, 3.4
1492, 5.6, 3.6
1493, 5.6, 3.8
1494, 5.6, 4
1495, 5.6, 4.2
1496, 5.6, 4.4
1497, 5.6, 4.6
1498, 5.6, 4.8
1499, 5.6, 5
1500, 5.6, 5.2
1501, 5.6, 5.4
1502, 5.6, 5.6
1503, 5.6, 5.8
1504, 5.6, 6
1505, 5.6, 6.2
1506, 5.6, 6.4
1507, 5.6, 6.6
1508, 5.6, 6.8
1509, 5.6, 7
1510, 5.6, 7.2
1511, 5.6, 7.4
1512, 5.6, 7.6
1513, 5.6, 7.8
1514, 5.6, 8
1515, 5.6, 8.2
1516, 5.6, 8.4
1517, 5.6, 8.6
1518, 5.6, 8.8
1519, 5.6, 9
1520, 5.6, 9.2
1521, 5.6, 9.4
1522, 5.6, 9.6
1523, 5.6, 9.8
1524, 5.4, 0.2
1525, 5.4, 0.4
1526, 5.4, 0.6
1527, 5.4, 0.8
1528, 5.4, 1
1529, 5.4, 1.2
1530, 5.4, 1.4
1531, 5.4, 1.6
1532, 5.4, 1.8
1533, 5.4, 2
1534, 5.4, 2.2
1535, 5.4, 2.4
1536, 5.4, 2.6
1537, 5.4, 2.8
1538, 5.4, 3
1539, 5.4, 3.2
1540, 5.4, 3.4
1541, 5.4, 3.6
1542, 5.4, 3.8
1543, 5.4, 4
1544, 5.4, 4.2
1545, 5.4, 4.4
1546, 5.4, 4.6
1547, 5.4, 4.8
1548, 5.4, 5
1549, 5.4, 5.2
1550, 5.4, 5.4
1551, 5.4, 5.6
1552, 5.4, 5.8
1553, 5.4, 6
1554, 5.4, 6.2
1555, 5.4, 6.4
1556, 5.4, 6.6
1557, 5.4, 6.8
1558, 5.4, 7
1559, 5.4, 7.2
1560, 5.4, 7.4
1561, 5.4, 7.6
1562, 5.4, 7.8
1563, 5.4, 8
1564, 5.4, 8.2
1565, 5.4, 8.4
1566, 5.4, 8.6
1567, 5.4, 8.8
1568, 5.4, 9
1569, 5.4, 9.2
1570, 5.4, 9.4
1571, 5.4, 9.6
1572, 5.4, 9.8
1573, 5.2, 0.2
1574, 5.2, 0.4
1575, 5.2, 0.6
1576, 5.2, 0.8
1577, 5.2, 1
1578, 5.2, 1.2
1579, 5.2, 1.4
1580, 5.2, 1.6
1581, 5.2, 1.8
1582, 5.2, 2
1583, 5.2, 2.2
1584, 5.2, 2.4
1585, 5.2, 2.6
1586, 5.2, 2.8
1587, 5.2, 3
1588, 5.2, 3.2
1589, 5.2, 3.4
1590, 5.2, 3.6
1591, 5.2, 3.8
1592, 5.2, 4
1593, 5.2, 4.2
1594, 5.2, 4.4
1595, 5.2, 4.6
1596, 5.2, 4.8
1597, 5.2, 5
1598, 5.2, 5.2
1599, 5.2, 5.4
1600, 5.2, 5.6
1601, 5.2, 5.8
1602, 5.2, 6
1603, 5.2, 6.2
1604, 5.2, 6.4
1605, 5.2, 6.6
1606, 5.2, 6.8
1607, 5.2, 7
1608, 5.2, 7.2
1609, 5.2, 7.4
1610, 5.2, 7.6
1611, 5.2, 7.8
1612, 5.2, 8
1613, 5.2, 8.2
1614, 5.2, 8.4
1615, 5.2, 8.6
1616, 5.2, 8.8
1617, 5.2, 9
1618, 5.2, 9.2
1619, 5.2, 9.4
1620, 5.2, 9.6
1621, 5.2, 9.8
1622, 5, 0.2
1623, 5, 0.4
1624, 5, 0.6
1625, 5, 0.8
1626, 5, 1
1627, 5, 1.2
1628, 5, 1.4
1629, 5, 1.6
1630, 5, 1.8
1631, 5, 2
1632, 5, 2.2
1633, 5, 2.4
1634, 5, 2.6
1635, 5, 2.8
1636, 5, 3
1637, 5, 3.2
1638, 5, 3.4
1639, 5, 3.6
1640, 5, 3.8
1641, 5, 4
1642, 5, 4.2
1643, 5, 4.4
1644, 5, 4.6
1645, 5, 4.8
1646, 5, 5
1647, 5, 5.2
1648, 5, 5.4
1649, 5, 5.6
1650, 5, 5.8
1651, 5, 6
1652, 5, 6.2
1653, 5, 6.4
1654, 5, 6.6
1655, 5, 6.8
1656, 5, 7
1657, 5, 7.2
1658, 5, 7.4
1659, 5, 7.6
1660, 5, 7.8
1661, 5, 8
1662, 5, 8.2
1663, 5, 8.4
1664, 5, 8.6
1665, 5, 8.8
1666, 5, 9
1667, 5, 9.2
1668, 5, 9.4
1669, 5, 9.6
1670, 5, 9.8
1671, 4.8, 0.2
1672, 4.8, 0.4
1673, 4.8, 0.6
1674, 4.8, 0.8
1675, 4.8, 1
1676, 4.8, 1.2
1677, 4.8, 1.4
1678, 4.8, 1.6
1679, 4.8, 1.8
1680, 4.8, 2
1681, 4.8, 2.2
1682, 4.8, 2.4
1683, 4.8, 2.6
1684, 4.8, 2.8
1685, 4.8, 3
1686, 4.8, 3.2
1687, 4.8, 3.4
1688, 4.8, 3.6
1689, 4.8, 3.8
1690, 4.8, 4
1691, 4.8, 4.2
1692, 4.8, 4.4
1693, 4.8, 4.6
1694, 4.8, 4.8
1695, 4.8, 5
1696, 4.8, 5.2
1697, 4.8, 5.4
1698, 4.8, 5.6
1699, 4.8, 5.8
1700, 4.8, 6
1701, 4.8, 6.2
1702, 4.8, 6.4
1703, 4.8, 6.6
1704, 4.8, 6.8
1705, 4.8, 7
1706, 4.8, 7.2
1707, 4.8, 7.4
1708, 4.8, 7.6
1709, 4.8, 7.8
1710, 4.8, 8
1711, 4.8, 8.2
1712, 4.8, 8.4
1713, 4.8, 8.6
1714, 4.8, 8.8
1715, 4.8, 9
1716, 4.8, 9.2
1717, 4.8, 9.4
1718, 4.8, 9.6
1719, 4.8, 9.8
1720, 4.6, 0.2
1721, 4.6, 0.4
1722, 4.6, 0.6
1723, 4.6, 0.8
1724, 4.6, 1
1725, 4.6, 1.2
1726, 4.6, 1.4
1727, 4.6, 1.6
1728, 4.6, 1.8
1729, 4.6, 2
1730, 4.6, 2.2
1731, 4.6, 2.4
1732, 4.6, 2.6
1733, 4.6, 2.8
1734, 4.6, 3
1735, 4.6, 3.2
1736, 4.6, 3.4
1737, 4.6, 3.6
1738, 4.6, 3.8
1739, 4.6, 4
1740, 4.6, 4.2
1741, 4.6, 4.4
1742, 4.6, 4.6
1743, 4.6, 4.8
1744, 4.6, 5
1745, 4.6, 5.2
1746, 4.6, 5.4
1747, 4.6, 5.6
1748, 4.6, 5.8
1749, 4.6, 6
1750, 4.6, 6.2
1751, 4.6, 6.4
1752, 4.6, 6.6
1753, 4.6, 6.8
1754, 4.6, 7
1755, 4.6, 7.2
1756, 4.6, 7.4
1757, 4.6, 7.6
1758, 4.6, 7.8
1759, 4.6, 8
1760, 4.6, 8.2
1761, 4.6, 8.4
1762, 4.6, 8.6
1763, 4.6, 8.8
1764, 4.6, 9
1765, 4.6, 9.2
1766, 4.6, 9.4
1767, 4.6, 9.6
1768, 4.6, 9.8
1769, 4.4, 0.2
1770, 4.4, 0.4
1771, 4.4, 0.6
1772, 4.4, 0.8
1773, 4.4, 1
1774, 4.4, 1.2
1775, 4.4, 1.4
1776, 4.4, 1.6
1777, 4.4, 1.8
1778, 4.4, 2
1779, 4.4, 2.2
1780, 4.4, 2.4
1781, 4.4, 2.6
1782, 4.4, 2.8
1783, 4.4, 3
1784, 4.4, 3.2
1785, 4.4, 3.4
1786, 4.4, 3.6
1787, 4.4, 3.8
1788, 4.4, 4
1789, 4.4, 4.2
1790, 4.4, 4.4
1791, 4.4, 4.6
1792, 4.4, 4.8
1793, 4.4, 5
1794, 4.4, 5.2
1795, 4.4, 5.4
1796, 4.4, 5.6
1797, 4.4, 5.8
1798, 4.4, 6
1799, 4.4, 6.2
1800, 4.4, 6.4
1801, 4.4, 6.6
1802, 4.4, 6.8
1803, 4.4, 7
1804, 4.4, 7.2
1805, 4.4, 7.4
1806, 4.4, 7.6
1807, 4.4, 7.8
1808, 4.4, 8
1809, 4.4, 8.2
1810, 4.4, 8.4
1811, 4.4, 8.6
1812, 4.4, 8.8
1813, 4.4, 9
1814, 4.4, 9.2
1815, 4.4, 9.4
1816, 4.4, 9.6
1817, 4.4, 9.8
1818, 4.2, 0.2
1819, 4.2, 0.4
1820, 4.2, 0.6
1821, 4.2, 0.8
1822, 4.2, 1
1823, 4.2, 1.2
1824, 4.2, 1.4
1825, 4.2, 1.6
1826, 4.2, 1.8
1827, 4.2, 2
1828, 4.2, 2.2
1829, 4.2, 2.4
1830, 4.2, 2.6
1831, 4.2, 2.8
1832, 4.2, 3
1833, 4.2, 3.2
1834, 4.2, 3.4
1835, 4.2, 3.6
1836, 4.2, 3.8
1837, 4.2, 4
1838, 4.2, 4.2
1839, 4.2, 4.4
1840, 4.2, 4.6
1841, 4.2, 4.8
1842, 4.2, 5
1843, 4.2, 5.2
1844, 4.2, 5.4
1845, 4.2, 5.6
1846, 4.2, 5.8
1847, 4.2, 6
1848, 4.2, 6.2
1849, 4.2, 6.4
1850, 4.2, 6.6
1851, 4.2, 6.8
1852, 4.2, 7
1853, 4.2, 7.2
1854, 4.2, 7.4
1855, 4.2, 7.6
1856, 4.2, 7.8
1857, 4.2, 8
1858, 4.2, 8.2
1859, 4.2, 8.4
1860, 4.2, 8.6
1861, 4.2, 8.8
1862, 4.2, 9
1863, 4.2, 9.2
1864, 4.2, 9.4
1865, 4.2, 9.6
1866, 4.2, 9.8
1867, 4, 0.2
1868, 4, 0.4
1869, 4, 0.6
1870, 4, 0.8
1871, 4, 1
1872, 4, 1.2
1873, 4, 1.4
1874, 4, 1.6
1875, 4, 1.8
1876, 4, 2
1877, 4, 2.2
1878, 4, 2.4
1879, 4, 2.6
1880, 4, 2.8
1881, 4, 3
1882, 4, 3.2
1883, 4, 3.4
1884, 4, 3.6
1885, 4, 3.8
1886, 4, 4
1887, 4, 4.2
1888, 4, 4.4
1889, 4, 4.6
1890, 4, 4.8
1891, 4, 5
1892, 4, 5.2
1893, 4, 5.4
1894, 4, 5.6
1895, 4, 5.8
1896, 4, 6
1897, 4, 6.2
1898, 4, 6.4
1899, 4, 6.6
1900, 4, 6.8
1901, 4, 7
1902, 4, 7.2
1903, 4, 7.4
1904, 4, 7.6
1905, 4, 7.8
1906, 4, 8
1907, 4, 8.2
1908, 4, 8.4
1909, 4, 8.6
1910, 4, 8.8
1911, 4, 9
1912, 4, 9.2
1913, 4, 9.4
1914, 4, 9.6
1915, 4, 9.8
1916, 3.8, 0.2
1917, 3.8, 0.4
1918, 3.8, 0.6
1919, 3.8, 0.8
1920, 3.8, 1
1921, 3.8, 1.2
1922, 3.8, 1.4
1923, 3.8, 1.6
1924, 3.8, 1.8
1925, 3.8, 2
1926, 3.8, 2.2
1927, 3.8, 2.4
1928, 3.8, 2.6
1929, 3.8, 2.8
1930, 3.8, 3
1931, 3.8, 3.2
1932, 3.8, 3.4
1933, 3.8, 3.6
1934, 3.8, 3.8
1935, 3.8, 4
1936, 3.8, 4.2
1937, 3.8, 4.4
1938, 3.8, 4.6
1939, 3.8, 4.8
1940, 3.8, 5
1941, 3.8, 5.2
1942, 3.8, 5.4
1943, 3.8, 5.6
1944, 3.8, 5.8
1945, 3.8, 6
1946, 3.8, 6.2
1947, 3.8, 6.4
1948, 3.8, 6.6
1949, 3.8, 6.8
1950, 3.8, 7
1951, 3.8, 7.2
1952, 3.8, 7.4
1953, 3.8, 7.6
1954, 3.8, 7.8
1955, 3.8, 8
1956, 3.8, 8.2
1957, 3.8, 8.4
1958, 3.8, 8.6
1959, 3.8, 8.8
1960, 3.8, 9
1961, 3.8, 9.2
1962, 3.8, 9.4
1963, 3.8, 9.6
1964, 3.8, 9.8
1965, 3.6, 0.2
1966, 3.6, 0.4
1967, 3.6, 0.6
1968, 3.6, 0.8
1969, 3.6, 1
1970, 3.6, 1.2
1971, 3.6, 1.4
1972, 3.6, 1.6
1973, 3.6, 1.8
1974, 3.6, 2
1975, 3.6, 2.2
1976, 3.6, 2.4
1977, 3.6, 2.6
1978, 3.6, 2.8
1979, 3.6, 3
1980, 3.6, 3.2
1981, 3.6, 3.4
1982, 3.6, 3.6
1983, 3.6, 3.8
1984, 3.6, 4
1985, 3.6, 4.2
1986, 3.6, 4.4
1987, 3.6, 4.6
1988, 3.6, 4.8
1989, 3.6, 5
1990, 3.6, 5.2
1991, 3.6, 5.4
1992, 3.6, 5.6
1993, 3.6, 5.8
1994, 3.6, 6
1995, 3.6, 6.2
1996, 3.6, 6.4
1997, 3.6, 6.6
1998, 3.6, 6.8
1999, 3.6, 7
2000, 3.6, 7.2
2001, 3.6, 7.4
2002, 3.6, 7.6
2003, 3.6, 7.8
2004, 3.6, 8
2005, 3.6, 8.2
2006, 3.6, 8.4
2007, 3.6, 8.6
2008, 3.6, 8.8
2009, 3.6, 9
2010, 3.6, 9.2
2011, 3.6, 9.4
2012, 3.6, 9.6
2013, 3.6, 9.8
2014, 3.4, 0.2
2015, 3.4, 0.4
2016, 3.4, 0.6
2017, 3.4, 0.8
2018, 3.4, 1
2019, 3.4, 1.2
2020, 3.4, 1.4
2021, 3.4, 1.6
2022, 3.4, 1.8
2023, 3.4, 2
2024, 3.4, 2.2
2025, 3.4, 2.4
2026, 3.4, 2.6
2027, 3.4, 2.8
2028, 3.4, 3
2029, 3.4, 3.2
2030, 3.4, 3.4
2031, 3.4, 3.6
2032, 3.4, 3.8
2033, 3.4, 4
2034, 3.4, 4.2
2035, 3.4, 4.4
2036, 3.4, 4.6
2037, 3.4, 4.8
2038, 3.4, 5
2039, 3.4, 5.2
2040, 3.4, 5.4
2041, 3.4, 5.6
2042, 3.4, 5.8
2043, 3.4, 6
2044, 3.4, 6.2
2045, 3.4, 6.4
2046, 3.4, 6.6
2047, 3.4, 6.8
2048, 3.4, 7
2049, 3.4, 7.2
2050, 3.4, 7.4
2051, 3.4, 7.6
2052, 3.4, 7.8
2053, 3.4, 8
2054, 3.4, 8.2
2055, 3.4, 8.4
2056, 3.4, 8.6
2057, 3.4, 8.8
2058, 3.4, 9
2059, 3.4, 9.2
2060, 3.4, 9.4
2061, 3.4, 9.6
2062, 3.4, 9.8
2063, 3.2, 0.2
2064, 3.2, 0.4
2065, 3.2, 0.6
2066, 3.2, 0.8
2067, 3.2, 1
2068, 3.2, 1.2
2069, 3.2, 1.4
2070, 3.2, 1.6
2071, 3.2, 1.8
2072, 3.2, 2
2073, 3.2, 2.2
2074, 3.2, 2.4
2075, 3.2, 2.6
2076, 3.2, 2.8
2077, 3.2, 3
2078, 3.2, 3.2
2079, 3.2, 3.4
2080, 3.2, 3.6
2081, 3.2, 3.8
2082, 3.2, 4
2083, 3.2, 4.2
2084, 3.2, 4.4
2085, 3.2, 4.6
2086, 3.2, 4.8
2087, 3.2, 5
2088, 3.2, 5.2
2089, 3.2, 5.4
2090, 3.2, 5.6
2091, 3.2, 5.8
2092, 3.2, 6
2093, 3.2, 6.2
2094, 3.2, 6.4
2095, 3.2, 6.6
2096, 3.2, 6.8
2097, 3.2, 7
2098, 3.2, 7.2
2099, 3.2, 7.4
2100, 3.2, 7.6
2101, 3.2, 7.8
2102, 3.2, 8
2103, 3.2, 8.2
2104, 3.2, 8.4
2105, 3.2, 8.6
2106, 3.2, 8.8
2107, 3.2, 9
2108, 3.2, 9.2
2109, 3.2, 9.4
2110, 3.2, 9.6
2111, 3.2, 9.8
2112, 3, 0.2
2113, 3, 0.4
2114, 3, 0.6
2115, 3, 0.8
2116, 3, 1
2117, 3, 1.2
2118, 3, 1.4
2119, 3, 1.6
2120, 3, 1.8
2121, 3, 2
2122, 3, 2.2
2123, 3, 2.4
2124, 3, 2.6
2125, 3, 2.8
2126, 3, 3
2127, 3, 3.2
2128, 3, 3.4
2129, 3, 3.6
2130, 3, 3.8
2131, 3, 4
2132, 3, 4.2
2133, 3, 4.4
2134, 3, 4.6
2135, 3, 4.8
2136, 3, 5
2137, 3, 5.2
2138, 3, 5.4
2139, 3, 5.6
2140, 3, 5.8
2141, 3, 6
2142, 3, 6.2
2143, 3, 6.4
2144, 3, 6.6
2145, 3, 6.8
2146, 3, 7
2147, 3, 7.2
2148, 3, 7.4
2149, 3, 7.6
2150, 3, 7.8
2151, 3, 8
2152, 3, 8.2
2153, 3, 8.4
2154, 3, 8.6
2155, 3, 8.8
2156, 3, 9
2157, 3, 9.2
2158, 3, 9.4
2159, 3, 9.6
2160, 3, 9.8
2161, 2.8, 0.2
2162, 2.8, 0.4
2163, 2.8, 0.6
2164, 2.8, 0.8
2165, 2.8, 1
2166, 2.8, 1.2
2167, 2.8, 1.4
2168, 2.8, 1.6
2169, 2.8, 1.8
2170, 2.8, 2
2171, 2.8, 2.2
2172, 2.8, 2.4
2173, 2.8, 2.6
2174, 2.8, 2.8
2175, 2.8, 3
2176, 2.8, 3.2
2177, 2.8, 3.4
2178, 2.8, 3.6
2179, 2.8, 3.8
2180, 2.8, 4
2181, 2.8, 4.2
2182, 2.8, 4.4
2183, 2.8, 4.6
2184, 2.8, 4.8
2185, 2.8, 5
2186, 2.8, 5.2
2187, 2.8, 5.4
2188, 2.8, 5.6
2189, 2.8, 5.8
2190, 2.8, 6
2191, 2.8, 6.2
2192, 2.8, 6.4
2193, 2.8, 6.6
2194, 2.8, 6.8
2195, 2.8, 7
2196, 2.8, 7.2
2197, 2.8, 7.4
2198, 2.8, 7.6
2199, 2.8, 7.8
2200, 2.8, 8
2201, 2.8, 8.2
2202, 2.8, 8.4
2203, 2.8, 8.6
2204, 2.8, 8.8
2205, 2.8, 9
2206, 2.8, 9.2
2207, 2.8, 9.4
2208, 2.8, 9.6
2209, 2.8, 9.8
2210, 2.6, 0.2
2211, 2.6, 0.4
2212, 2.6, 0.6
2213, 2.6, 0.8
2214, 2.6, 1
2215, 2.6, 1.2
2216, 2.6, 1.4
2217, 2.6, 1.6
2218, 2.6, 1.8
2219, 2.6, 2
2220, 2.6, 2.2
2221, 2.6, 2.4
2222, 2.6, 2.6
2223, 2.6, 2.8
2224, 2.6, 3
2225, 2.6, 3.2
2226, 2.6, 3.4
2227, 2.6, 3.6
2228, 2.6, 3.8
2229, 2.6, 4
2230, 2.6, 4.2
2231, 2.6, 4.4
2232, 2.6, 4.6
2233, 2.6, 4.8
2234, 2.6, 5
2235, 2.6, 5.2
2236, 2.6, 5.4
2237, 2.6, 5.6
2238, 2.6, 5.8
2239, 2.6, 6
2240, 2.6, 6.2
2241, 2.6, 6.4
2242, 2.6, 6.6
2243, 2.6, 6.8
2244, 2.6, 7
2245, 2.6, 7.2
2246, 2.6, 7.4
2247, 2.6, 7.6
2248, 2.6, 7.8
2249, 2.6, 8
2250, 2.6, 8.2
2251, 2.6, 8.4
2252, 2.6, 8.6
2253, 2.6, 8.8
2254, 2.6, 9
2255, 2.6, 9.2
2256, 2.6, 9.4
2257, 2.6, 9.6
2258, 2.6, 9.8
2259, 2.4, 0.2
2260, 2.4, 0.4
2261, 2.4, 0.6
2262, 2.4, 0.8
2263, 2.4, 1
2264, 2.4, 1.2
2265, 2.4, 1.4
2266, 2.4, 1.6
2267, 2.4, 1.8
2268, 2.4, 2
2269, 2.4, 2.2
2270, 2.4, 2.4
2271, 2.4, 2.6
2272, 2.4, 2.8
2273, 2.4, 3
2274, 2.4, 3.2
2275, 2.4, 3.4
2276, 2.4, 3.6
2277, 2.4, 3.8
2278, 2.4, 4
2279, 2.4, 4.2
2280, 2.4, 4.4
2281, 2.4, 4.6
2282, 2.4, 4.8
2283, 2.4, 5
2284, 2.4, 5.2
2285, 2.4, 5.4
2286, 2.4, 5.6
2287, 2.4, 5.8
2288, 2.4, 6
2289, 2.4, 6.2
2290, 2.4, 6.4
2291, 2.4, 6.6
2292, 2.4, 6.8
2293, 2.4, 7
2294, 2.4, 7.2
2295, 2.4, 7.4
2296, 2.4, 7.6
2297, 2.4, 7.8
2298, 2.4, 8
2299, 2.4, 8.2
2300, 2.4, 8.4
2301, 2.4, 8.6
2302, 2.4, 8.8
2303, 2.4, 9
2304, 2.4, 9.2
2305, 2.4, 9.4
2306, 2.4, 9.6
2307, 2.4, 9.8
2308, 2.2, 0.2
2309, 2.2, 0.4
2310, 2.2, 0.6
2311, 2.2, 0.8
2312, 2.2, 1
2313, 2.2, 1.2
2314, 2.2, 1.4
2315, 2.2, 1.6
2316, 2.2, 1.8
2317, 2.2, 2
2318, 2.2, 2.2
2319, 2.2, 2.4
2320, 2.2, 2.6
2321, 2.2, 2.8
2322, 2.2, 3
2323, 2.2, 3.2
2324, 2.2, 3.4
2325, 2.2, 3.6
2326, 2.2, 3.8
2327, 2.2, 4
2328, 2.2, 4.2
2329, 2.2, 4.4
2330, 2.2, 4.6
2331, 2.2, 4.8
2332, 2.2, 5
2333, 2.2, 5.2
2334, 2.2, 5.4
2335, 2.2, 5.6
2336, 2.2, 5.8
2337, 2.2, 6
2338, 2.2, 6.2
2339, 2.2, 6.4
2340, 2.2, 6.6
2341, 2.2, 6.8
2342, 2.2, 7
2343, 2.2, 7.2
2344, 2.2, 7.4
2345, 2.2, 7.6
2346, 2.2, 7.8
2347, 2.2, 8
2348, 2.2, 8.2
2349, 2.2, 8.4
2350, 2.2, 8.6
2351, 2.2, 8.8
2352, 2.2, 9
2353, 2.2, 9.2
2354, 2.2, 9.4
2355, 2.2, 9.6
2356, 2.2, 9.8
2357, 2, 0.2
2358, 2, 0.4
2359, 2, 0.6
2360, 2, 0.8
2361, 2, 1
2362, 2, 1.2
2363, 2, 1.4
2364, 2, 1.6
2365, 2, 1.8
2366, 2, 2
2367, 2, 2.2
2368, 2, 2.4
2369, 2, 2.6
2370, 2, 2.8
2371, 2, 3
2372, 2, 3.2
2373, 2, 3.4
2374, 2, 3.6
2375, 2, 3.8
2376, 2, 4
2377, 2, 4.2
2378, 2, 4.4
2379, 2, 4.6
2380, 2, 4.8
2381, 2, 5
2382, 2, 5.2
2383, 2, 5.4
2384, 2, 5.6
2385, 2, 5.8
2386, 2, 6
2387, 2, 6.2
2388, 2, 6.4
2389, 2, 6.6
2390, 2, 6.8
2391, 2, 7
2392, 2, 7.2
2393, 2, 7.4
2394, 2, 7.6
2395, 2, 7.8
2396, 2, 8
2397, 2, 8.2
2398, 2, 8.4
2399, 2, 8.6
2400, 2, 8.8
2401, 2, 9
2402, 2, 9.2
2403, 2, 9.4
2404, 2, 9.6
2405, 2, 9.8
2406, 1.8, 0.2
2407, 1.8, 0.4
2408, 1.8, 0.6
2409, 1.8, 0.8
2410, 1.8, 1
2411, 1.8, 1.2
2412, 1.8, 1.4
2413, 1.8, 1.6
2414, 1.8, 1.8
2415, 1.8, 2
2416, 1.8, 2.2
2417, 1.8, 2.4
2418, 1.8, 2.6
2419, 1.8, 2.8
2420, 1.8, 3
2421, 1.8, 3.2
2422, 1.8, 3.4
2423, 1.8, 3.6
2424, 1.8, 3.8
2425, 1.8, 4
2426, 1.8, 4.2
2427, 1.8, 4.4
2428, 1.8, 4.6
2429, 1.8, 4.8
2430, 1.8, 5
2431, 1.8, 5.2
2432, 1.8, 5.4
2433, 1.8, 5.6
2434, 1.8, 5.8
2435, 1.8, 6
2436, 1.8, 6.2
2437, 1.8, 6.4
2438, 1.8, 6.6
2439, 1.8, 6.8
2440, 1.8, 7
2441, 1.8, 7.2
2442, 1.8, 7.4
2443, 1.8, 7.6
2444, 1.8, 7.8
2445, 1.8, 8
2446, 1.8, 8.2
2447, 1.8, 8.4
2448, 1.8, 8.6
2449, 1.8, 8.8
2450, 1.8, 9
2451, 1.8, 9.2
2452, 1.8, 9.4
2453, 1.8, 9.6
2454, 1.8, 9.8
2455, 1.6, 0.2
2456, 1.6, 0.4
2457, 1.6, 0.6
2458, 1.6, 0.8
2459, 1.6, 1
2460, 1.6, 1.2
2461, 1.6, 1.4
2462, 1.6, 1.6
2463, 1.6, 1.8
2464, 1.6, 2
2465, 1.6, 2.2
2466, 1.6, 2.4
2467, 1.6, 2.6
2468, 1.6, 2.8
2469, 1.6, 3
2470, 1.6, 3.2
2471, 1.6, 3.4
2472, 1.6, 3.6
2473, 1.6, 3.8
2474, 1.6, 4
2475, 1.6, 4.2
2476, 1.6, 4.4
2477, 1.6, 4.6
2478, 1.6, 4.8
2479, 1.6, 5
2480, 1.6, 5.2
2481, 1.6, 5.4
2482, 1.6, 5.6
2483, 1.6, 5.8
2484, 1.6, 6
2485, 1.6, 6.2
2486, 1.6, 6.4
2487, 1.6, 6.6
2488, 1.6, 6.8
2489, 1.6, 7
2490, 1.6, 7.2
2491, 1.6, 7.4
2492, 1.6, 7.6
2493, 1.6, 7.8
2494, 1.6, 8
2495, 1.6, 8.2
2496, 1.6, 8.4
2497, 1.6, 8.6
2498, 1.6, 8.8
2499, 1.6, 9
2500, 1.6, 9.2
2501, 1.6, 9.4
2502, 1.6, 9.6
2503, 1.6, 9.8
2504, 1.4, 0.2
2505, 1.4, 0.4
2506, 1.4, 0.6
2507, 1.4, 0.8
2508, 1.4, 1
2509, 1.4, 1.2
2510, 1.4, 1.4
2511, 1.4, 1.6
2512, 1.4, 1.8
2513, 1.4, 2
2514, 1.4, 2.2
2515, 1.4, 2.4
2516, 1.4, 2.6
2517, 1.4, 2.8
2518, 1.4, 3
2519, 1.4, 3.2
2520, 1.4, 3.4
2521, 1.4, 3.6
2522, 1.4, 3.8
2523, 1.4, 4
2524, 1.4, 4.2
2525, 1.4, 4.4
2526, 1.4, 4.6
2527, 1.4, 4.8
2528, 1.4, 5
2529, 1.4, 5.2
2530, 1.4, 5.4
2531, 1.4, 5.6
2532, 1.4, 5.8
2533, 1.4, 6
2534, 1.4, 6.2
2535, 1.4, 6.4
2536, 1.4, 6.6
2537, 1.4, 6.8
2538, 1.4, 7
2539, 1.4, 7.2
2540, 1.4, 7.4
2541, 1.4, 7.6
2542, 1.4, 7.8
2543, 1.4, 8
2544, 1.4, 8.2
2545, 1.4, 8.4
2546, 1.4, 8.6
2547, 1.4, 8.8
2548, 1.4, 9
2549, 1.4, 9.2
2550, 1.4, 9.4
2551, 1.4, 9.6
2552, 1.4, 9.8
2553, 1.2, 0.2
2554, 1.2, 0.4
2555, 1.2, 0.6
2556, 1.2, 0.8
2557, 1.2, 1
2558, 1.2, 1.2
2559, 1.2, 1.4
2560, 1.2, 1.6
2561, 1.2, 1.8
2562, 1.2, 2
2563, 1.2, 2.2
2564, 1.2, 2.4
2565, 1.2, 2.6
2566, 1.2, 2.8
2567, 1.2, 3
2568, 1.2, 3.2
2569, 1.2, 3.4
2570, 1.2, 3.6
2571, 1.2, 3.8
2572, 1.2, 4
2573, 1.2, 4.2
2574, 1.2, 4.4
2575, 1.2, 4.6
2576, 1.2, 4.8
2577, 1.2, 5
2578, 1.2, 5.2
2579, 1.2, 5.4
2580, 1.2, 5.6
2581, 1.2, 5.8
2582, 1.2, 6
2583, 1.2, 6.2
2584, 1.2, 6.4
2585, 1.2, 6.6
2586, 1.2, 6.8
2587, 1.2, 7
2588, 1.2, 7.2
2589, 1.2, 7.4
2590, 1.2, 7.6
2591, 1.2, 7.8
2592, 1.2, 8
2593, 1.2, 8.2
2594, 1.2, 8.4
2595, 1.2, 8.6
2596, 1.2, 8.8
2597, 1.2, 9
2598, 1.2, 9.2
2599, 1.2, 9.4
2600, 1.2, 9.6
2601, 1.2, 9.8
2602, 0.9, 0
2603, 0.7, 0
2604, 0.5, 0
2605, 0.3, 0
2606, 0.1, 0
2607, 1, 9.9
2608, 1, 9.7
2609, 1, 9.5
2610, 1, 9.3
2611, 1, 9.1
2612, 1, 8.9
2613, 1, 8.7
2614, 1, 8.5
2615, 1, 8.3
2616, 1, 8.1
2617, 1, 7.9
2618, 1, 7.7
2619, 1, 7.5
2620, 1, 7.3
2621, 1, 7.1
2622, 1, 6.9
2623, 1, 6.7
2624, 1, 6.5
2625, 1, 6.3
2626, 1, 6.1
2627, 1, 5.9
2628, 1, 5.7
2629, 1, 5.5
2630, 1, 5.3
2631, 1, 5.1
2632, 1, 4.9
2633, 1, 4.7
2634, 1, 4.5
2635, 1, 4.3
2636, 1, 4.1
2637, 1, 3.9
2638, 1, 3.7
2639, 1, 3.5
2640, 1, 3.3
2641, 1, 3.1
2642, 1, 2.9
2643, 1, 2.7
2644, 1, 2.5
2645, 1, 2.3
2646, 1, 2.1
2647, 1, 1.9
2648, 1, 1.7
2649, 1, 1.5
2650, 1, 1.3
2651, 1, 1.1
2652, 1, 0.9
2653, 1, 0.7
2654, 1, 0.5
2655, 1, 0.3
2656, 1, 0.1
2657, 0.1, 10
2658, 0.3, 10
2659, 0.5, 10
2660, 0.7, 10
2661, 0.9, 10
2662, 0, 0.1
2663, 0, 0.3
2664, 0, 0.5
2665, 0, 0.7
2666, 0, 0.9
2667, 0, 1.1
2668, 0, 1.3
2669, 0, 1.5
2670, 0, 1.7
2671, 0, 1.9
2672, 0, 2.1
2673, 0, 2.3
2674, 0, 2.5
2675, 0, 2.7
2676, 0, 2.9
2677, 0, 3.1
2678, 0, 3.3
2679, 0, 3.5
2680, 0, 3.7
2681, 0, 3.9
2682, 0, 4.1
2683, 0, 4.3
2684, 0, 4.5
2685, 0, 4.7
2686, 0, 4.9
2687, 0, 5.1
2688, 0, 5.3
2689, 0, 5.5
2690, 0, 5.7
2691, 0, 5.9
2692, 0, 6.1
2693, 0, 6.3
2694, 0, 6.5
2695, 0, 6.7
2696, 0, 6.9
2697, 0, 7.1
2698, 0, 7.3
2699, 0, 7.5
2700, 0, 7.7
2701, 0, 7.9
2702, 0, 8.1
2703, 0, 8.3
2704, 0, 8.5
2705, 0, 8.7
2706, 0, 8.9
2707, 0, 9.1
2708, 0, 9.3
2709, 0, 9.5
2710, 0, 9.7
2711, 0, 9.9
2712, 9.9, 0
2713, 9.7, 0
2714, 9.5, 0
2715, 9.3, 0
2716, 9.1, 0
2717, 8.9, 0
2718, 8.7, 0
2719, 8.5, 0
2720, 8.3, 0
2721, 8.1, 0
2722, 7.9, 0
2723, 7.7, 0
2724, 7.5, 0
2725, 7.3, 0
2726, 7.1, 0
2727, 6.9, 0
2728, 6.7, 0
2729, 6.5, 0
2730, 6.3, 0
2731, 6.1, 0
2732, 5.9, 0
2733, 5.7, 0
2734, 5.5, 0
2735, 5.3, 0
2736, 5.1, 0
2737, 4.9, 0
2738, 4.7, 0
2739, 4.5, 0
2740, 4.3, 0
2741, 4.1, 0
2742, 3.9, 0
2743, 3.7, 0
2744, 3.5, 0
2745, 3.3, 0
2746, 3.1, 0
2747, 2.9, 0
2748, 2.7, 0
2749, 2.5, 0
2750, 2.3, 0
2751, 2.1, 0
2752, 1.9, 0
2753, 1.7, 0
2754, 1.5, 0
2755, 1.3, 0
2756, 1.1, 0
2757, 10, 9.9
2758, 10, 9.7
2759, 10, 9.5
2760, 10, 9.3
2761, 10, 9.1
2762, 10, 8.9
2763, 10, 8.7
2764, 10, 8.5
2765, 10, 8.3
2766, 10, 8.1
2767, 10, 7.9
2768, 10, 7.7
2769, 10, 7.5
2770, 10, 7.3
2771, 10, 7.1
2772, 10, 6.9
2773, 10, 6.7
2774, 10, 6.5
2775, 10, 6.3
2776, 10, 6.1
2777, 10, 5.9
2778, 10, 5.7
2779, 10, 5.5
2780, 10, 5.3
2781, 10, 5.1
2782, 10, 4.9
2783, 10, 4.7
2784, 10, 4.5
2785, 10, 4.3
2786, 10, 4.1
2787, 10, 3.9
2788, 10, 3.7
2789, 10, 3.5
2790, 10, 3.3
2791, 10, 3.1
2792, 10, 2.9
2793, 10, 2.7
2794, 10, 2.5
2795, 10, 2.3
2796, 10, 2.1
2797, 10, 1.9
2798, 10, 1.7
2799, 10, 1.5
2800, 10, 1.3
2801, 10, 1.1
2802, 10, 0.9
2803, 10, 0.7
2804, 10, 0.5
2805, 10, 0.3
2806, 10, 0.1
2807, 1.1, 10
2808, 1.3, 10
2809, 1.5, 10
2810, 1.7, 10
2811, 1.9, 10
2812, 2.1, 10
2813, 2.3, 10
2814, 2.5, 10
2815, 2.7, 10
2816, 2.9, 10
2817, 3.1, 10
2818, 3.3, 10
2819, 3.5, 10
2820, 3.7, 10
2821, 3.9, 10
2822, 4.1, 10
2823, 4.3, 10
2824, 4.5, 10
2825, 4.7, 10
2826, 4.9, 10
2827, 5.1, 10
2828, 5.3, 10
2829, 5.5, 10
2830, 5.7, 10
2831, 5.9, 10
2832, 6.1, 10
2833, 6.3, 10
2834, 6.5, 10
2835, 6.7, 10
2836, 6.9, 10
2837, 7.1, 10
2838, 7.3, 10
2839, 7.5, 10
2840, 7.7, 10
2841, 7.9, 10
2842, 8.1, 10
2843, 8.3, 10
2844, 8.5, 10
2845, 8.7, 10
2846, 8.9, 10
2847, 9.1, 10
2848, 9.3, 10
2849, 9.5, 10
2850, 9.7, 10
2851, 9.9, 10
2852, 0.8, 0.1
2853, 0.9, 0.2
2854, 0.8, 0.3
2855, 0.9, 0.4
2856, 0.8, 0.5
2857, 0.9, 0.6
2858, 0.8, 0.7
2859, 0.9, 0.8
2860, 0.8, 0.9
2861, 0.9, 1
2862, 0.8, 1.1
2863, 0.9, 1.2
2864, 0.8, 1.3
2865, 0.9, 1.4
2866, 0.8, 1.5
2867, 0.9, 1.6
2868, 0.8, 1.7
2869, 0.9, 1.8
2870, 0.8, 1.9
2871, 0.9, 2
2872, 0.8, 2.1
2873, 0.9, 2.2
2874, 0.8, 2.3
2875, 0.9, 2.4
2876, 0.8, 2.5
2877, 0.9, 2.6
2878, 0.8, 2.7
2879, 0.9, 2.8
2880, 0.8, 2.9
2881, 0.9, 3
2882, 0.8, 3.1
2883, 0.9, 3.2
2884, 0.8, 3.3
2885, 0.9, 3.4
2886, 0.8, 3.5
2887, 0.9, 3.6
2888, 0.8, 3.7
2889, 0.9, 3.8
2890, 0.8, 3.9
2891, 0.9, 4
2892, 0.8, 4.1
2893, 0.9, 4.2
2894, 0.8, 4.3
2895, 0.9, 4.4
2896, 0.8, 4.5
2897, 0.9, 4.6
2898, 0.8, 4.7
2899, 0.9, 4.8
2900, 0.8, 4.9
2901, 0.9, 5
2902, 0.8, 5.1
2903, 0.9, 5.2
2904, 0.8, 5.3
2905, 0.9, 5.4
2906, 0.8, 5.5
2907, 0.9, 5.6
2908, 0.8, 5.7
2909, 0.9, 5.8
2910, 0.8, 5.9
2911, 0.9, 6
2912, 0.8, 6.1
2913, 0.9, 6.2
2914, 0.8, 6.3
2915, 0.9, 6.4
2916, 0.8, 6.5
2917, 0.9, 6.6
2918, 0.8, 6.7
2919, 0.9, 6.8
2920, 0.8, 6.9
2921, 0.9, 7
2922, 0.8, 7.1
2923, 0.9, 7.2
2924, 0.8, 7.3
2925, 0.9, 7.4
2926, 0.8, 7.5
2927, 0.9, 7.6
2928, 0.8, 7.7
2929, 0.9, 7.8
2930, 0.8, 7.9
2931, 0.9, 8
2932, 0.8, 8.1
2933, 0.9, 8.2
2934, 0.8, 8.3
2935, 0.9, 8.4
2936, 0.8, 8.5
2937, 0.9, 8.6
2938, 0.8, 8.7
2939, 0.9, 8.8
2940, 0.8, 8.9
2941, 0.9, 9
2942, 0.8, 9.1
2943, 0.9, 9.2
2944, 0.8, 9.3
2945, 0.9, 9.4
2946, 0.8, 9.5
2947, 0.9, 9.6
2948, 0.8, 9.7
2949, 0.9, 9.8
2950, 0.8, 9.9
2951, 0.6, 0.1
2952, 0.7, 0.2
2953, 0.6, 0.3
2954, 0.7, 0.4
2955, 0.6, 0.5
2956, 0.7, 0.6
2957, 0.6, 0.7
2958, 0.7, 0.8
2959, 0.6, 0.9
2960, 0.7, 1
2961, 0.6, 1.1
2962, 0.7, 1.2
2963, 0.6, 1.3
2964, 0.7, 1.4
2965, 0.6, 1.5
2966, 0.7, 1.6
2967, 0.6, 1.7
2968, 0.7, 1.8
2969, 0.6, 1.9
2970, 0.7, 2
2971, 0.6, 2.1
2972, 0.7, 2.2
2973, 0.6, 2.3
2974, 0.7, 2.4
2975, 0.6, 2.5
2976, 0.7, 2.6
2977, 0.6, 2.7
2978, 0.7, 2.8
2979, 0.6, 2.9
2980, 0.7, 3
2981, 0.6, 3.1
2982, 0.7, 3.2
2983, 0.6, 3.3
2984, 0.7, 3.4
2985, 0.6, 3.5
2986, 0.7, 3.6
2987, 0.6, 3.7
2988, 0.7, 3.8
2989, 0.6, 3.9
2990, 0.7, 4
2991, 0.6, 4.1
2992, 0.7, 4.2
2993, 0.6, 4.3
2994, 0.7, 4.4
2995, 0.6, 4.5
2996, 0.7, 4.6
2997, 0.6, 4.7
2998, 0.7, 4.8
2999, 0.6, 4.9
3000, 0.7, 5
3001, 0.6, 5.1
3002, 0.7, 5.2
3003, 0.6, 5.3
3004, 0.7, 5.4
3005, 0.6, 5.5
3006, 0.7, 5.6
3007, 0.6, 5.7
3008, 0.7, 5.8
3009, 0.6, 5.9
3010, 0.7, 6
3011, 0.6, 6.1
3012, 0.7, 6.2
3013, 0.6, 6.3
3014, 0.7, 6.4
3015, 0.6, 6.5
3016, 0.7, 6.6
3017, 0.6, 6.7
3018, 0.7, 6.8
3019, 0.6, 6.9
3020, 0.7, 7
3021, 0.6, 7.1
3022, 0.7, 7.2
3023, 0.6, 7.3
3024, 0.7, 7.4
3025, 0.6, 7.5
3026, 0.7, 7.6
3027, 0.6, 7.7
3028, 0.7, 7.8
3029, 0.6, 7.9
3030, 0.7, 8
3031, 0.6, 8.1
3032, 0.7, 8.2
3033, 0.6, 8.3
3034, 0.7, 8.4
3035, 0.6, 8.5
3036, 0.7, 8.6
3037, 0.6, 8.7
3038, 0.7, 8.8
3039, 0.6, 8.9
3040, 0.7, 9
3041, 0.6, 9.1
3042, 0.7, 9.2
3043, 0.6, 9.3
3044, 0.7, 9.4
3045, 0.6, 9.5
3046, 0.7, 9.6
3047, 0.6, 9.7
3048, 0.7, 9.8
3049, 0.6, 9.9
3050, 0.4, 0.1
3051, 0.5, 0.2
3052, 0.4, 0.3
3053, 0.5, 0.4
3054, 0.4, 0.5
3055, 0.5, 0.6
3056, 0.4, 0.7
3057, 0.5, 0.8
3058, 0.4, 0.9
3059, 0.5, 1
3060, 0.4, 1.1
3061, 0.5, 1.2
3062, 0.4, 1.3
3063, 0.5, 1.4
3064, 0.4, 1.5
3065, 0.5, 1.6
3066, 0.4, 1.7
3067, 0.5, 1.8
3068, 0.4, 1.9
3069, 0.5, 2
3070, 0.4, 2.1
3071, 0.5, 2.2
3072, 0.4, 2.3
3073, 0.5, 2.4
3074, 0.4, 2.5
3075, 0.5, 2.6
3076, 0.4, 2.7
3077, 0.5, 2.8
3078, 0.4, 2.9
3079, 0.5, 3
3080, 0.4, 3.1
3081, 0.5, 3.2
3082, 0.4, 3.3
3083, 0.5, 3.4
3084, 0.4, 3.5
3085, 0.5, 3.6
3086, 0.4, 3.7
3087, 0.5, 3.8
3088, 0.4, 3.9
3089, 0.5, 4
3090, 0.4, 4.1
3091, 0.5, 4.2
3092, 0.4, 4.3
3093, 0.5, 4.4
3094, 0.4, 4.5
3095, 0.5, 4.6
3096, 0.4, 4.7
3097, 0.5, 4.8
3098, 0.4, 4.9
3099, 0.5, 5
3100, 0.4, 5.1
3101, 0.5, 5.2
3102, 0.4, 5.3
3103, 0.5, 5.4
3104, 0.4, 5.5
3105, 0.5, 5.6
3106, 0.4, 5.7
3107, 0.5, 5.8
3108, 0.4, 5.9
3109, 0.5, 6
3110, 0.4, 6.1
3111, 0.5, 6.2
3112, 0.4, 6.3
3113, 0.5, 6.4
3114, 0.4, 6.5
3115, 0.5, 6.6
3116, 0.4, 6.7
3117, 0.5, 6.8
3118, 0.4, 6.9
3119, 0.5, 7
3120, 0.4, 7.1
3121, 0.5, 7.2
3122, 0.4, 7.3
3123, 0.5, 7.4
3124, 0.4, 7.5
3125, 0.5, 7.6
3126, 0.4, 7.7
3127, 0.5, 7.8
3128, 0.4, 7.9
3129, 0.5, 8
3130, 0.4, 8.1
3131, 0.5, 8.2
3132, 0.4, 8.3
3133, 0.5, 8.4
3134, 0.4, 8.5
3135, 0.5, 8.6
3136, 0.4, 8.7
3137, 0.5, 8.8
3138, 0.4, 8.9
3139, 0.5, 9
3140, 0.4, 9.1
3141, 0.5, 9.2
3142, 0.4, 9.3
3143, 0.5, 9.4
3144, 0.4, 9.5
3145, 0.5, 9.6
3146, 0.4, 9.7
3147, 0.5, 9.8
3148, 0.4, 9.9
3149, 0.2, 0.1
3150, 0.3, 0.2
3151, 0.2, 0.3
3152, 0.3, 0.4
3153, 0.2, 0.5
3154, 0.3, 0.6
3155, 0.2, 0.7
3156, 0.3, 0.8
3157, 0.2, 0.9
3158, 0.3, 1
3159, 0.2, 1.1
3160, 0.3, 1.2
3161, 0.2, 1.3
3162, 0.3, 1.4
3163, 0.2, 1.5
3164, 0.3, 1.6
3165, 0.2, 1.7
3166, 0.3, 1.8
3167, 0.2, 1.9
3168, 0.3, 2
3169, 0.2, 2.1
3170, 0.3, 2.2
3171, 0.2, 2.3
3172, 0.3, 2.4
3173, 0.2, 2.5
3174, 0.3, 2.6
3175, 0.2, 2.7
3176, 0.3, 2.8
3177, 0.2, 2.9
3178, 0.3, 3
3179, 0.2, 3.1
3180, 0.3, 3.2
3181, 0.2, 3.3
3182, 0.3, 3.4
3183, 0.2, 3.5
3184, 0.3, 3.6
3185, 0.2, 3.7
3186, 0.3, 3.8
3187, 0.2, 3.9
3188, 0.3, 4
3189, 0.2, 4.1
3190, 0.3, 4.2
3191, 0.2, 4.3
3192, 0.3, 4.4
3193, 0.2, 4.5
3194, 0.3, 4.6
3195, 0.2, 4.7
3196, 0.3, 4.8
3197, 0.2, 4.9
3198, 0.3, 5
3199, 0.2, 5.1
3200, 0.3, 5.2
3201, 0.2, 5.3
3202, 0.3, 5.4
3203, 0.2, 5.5
3204, 0.3, 5.6
3205, 0.2, 5.7
3206, 0.3, 5.8
3207, 0.2, 5.9
3208, 0.3, 6
3209, 0.2, 6.1
3210, 0.3, 6.2
3211, 0.2, 6.3
3212, 0.3, 6.4
3213, 0.2, 6.5
3214, 0.3, 6.6
3215, 0.2, 6.7
3216, 0.3, 6.8
3217, 0.2, 6.9
3218, 0.3, 7
3219, 0.2, 7.1
3220, 0.3, 7.2
3221, 0.2, 7.3
3222, 0.3, 7.4
3223, 0.2, 7.5
3224, 0.3, 7.6
3225, 0.2, 7.7
3226, 0.3, 7.8
3227, 0.2, 7.9
3228, 0.3, 8
3229, 0.2, 8.1
3230, 0.3, 8.2
3231, 0.2, 8.3
3232, 0.3, 8.4
3233, 0.2, 8.5
3234, 0.3, 8.6
3235, 0.2, 8.7
3236, 0.3, 8.8
3237, 0.2, 8.9
3238, 0.3, 9
3239, 0.2, 9.1
3240, 0.3, 9.2
3241, 0.2, 9.3
3242, 0.3, 9.4
3243, 0.2, 9.5
3244, 0.3, 9.6
3245, 0.2, 9.7
3246, 0.3, 9.8
3247, 0.2, 9.9
3248, 0.1, 0.2
3249, 0.1, 0.4
3250, 0.1, 0.6
3251, 0.1, 0.8
3252, 0.1, 1
3253, 0.1, 1.2
3254, 0.1, 1.4
3255, 0.1, 1.6
3256, 0.1, 1.8
3257, 0.1, 2
3258, 0.1, 2.2
3259, 0.1, 2.4
3260, 0.1, 2.6
3261, 0.1, 2.8
3262, 0.1, 3
3263, 0.1, 3.2
3264, 0.1, 3.4
3265, 0.1, 3.6
3266, 0.1, 3.8
3267, 0.1, 4
3268, 0.1, 4.2
3269, 0.1, 4.4
3270, 0.1, 4.6
3271, 0.1, 4.8
3272, 0.1, 5
3273, 0.1, 5.2
3274, 0.1, 5.4
3275, 0.1, 5.6
3276, 0.1, 5.8
3277, 0.1, 6
3278, 0.1, 6.2
3279, 0.1, 6.4
3280, 0.1, 6.6
3281, 0.1, 6.8
3282, 0.1, 7
3283, 0.1, 7.2
3284, 0.1, 7.4
3285, 0.1, 7.6
3286, 0.1, 7.8
3287, 0.1, 8
3288, 0.1, 8.2
3289, 0.1, 8.4
3290, 0.1, 8.6
3291, 0.1, 8.8
3292, 0.1, 9
3293, 0.1, 9.2
3294, 0.1, 9.4
3295, 0.1, 9.6
3296, 0.1, 9.8
3297, 9.8, 0.1
3298, 9.9, 0.2
3299, 9.8, 0.3
3300, 9.9, 0.4
3301, 9.8, 0.5
3302, 9.9, 0.6
3303, 9.8, 0.7
3304, 9.9, 0.8
3305, 9.8, 0.9
3306, 9.9, 1
3307, 9.8, 1.1
3308, 9.9, 1.2
3309, 9.8, 1.3
3310, 9.9, 1.4
3311, 9.8, 1.5
3312, 9.9, 1.6
3313, 9.8, 1.7
3314, 9.9, 1.8
3315, 9.8, 1.9
3316, 9.9, 2
3317, 9.8, 2.1
3318, 9.9, 2.2
3319, 9.8, 2.3
3320, 9.9, 2.4
3321, 9.8, 2.5
3322, 9.9, 2.6
3323, 9.8, 2.7
3324, 9.9, 2.8
3325, 9.8, 2.9
3326, 9.9, 3
3327, 9.8, 3.1
3328, 9.9, 3.2
3329, 9.8, 3.3
3330, 9.9, 3.4
3331, 9.8, 3.5
3332, 9.9, 3.6
3333, 9.8, 3.7
3334, 9.9, 3.8
3335, 9.8, 3.9
3336, 9.9, 4
3337, 9.8, 4.1
3338, 9.9, 4.2
3339, 9.8, 4.3
3340, 9.9, 4.4
3341, 9.8, 4.5
3342, 9.9, 4.6
3343, 9.8, 4.7
3344, 9.9, 4.8
3345, 9.8, 4.9
3346, 9.9, 5
3347, 9.8, 5.1
3348, 9.9, 5.2
3349, 9.8, 5.3
3350, 9.9, 5.4
3351, 9.8, 5.5
3352, 9.9, 5.6
3353, 9.8, 5.7
3354, 9.9, 5.8
3355, 9.8, 5.9
3356, 9.9, 6
3357, 9.8, 6.1
3358, 9.9, 6.2
3359, 9.8, 6.3
3360, 9.9, 6.4
3361, 9.8, 6.5
3362, 9.9, 6.6
3363, 9.8, 6.7
3364, 9.9, 6.8
3365, 9.8, 6.9
3366, 9.9, 7
3367, 9.8, 7.1
3368, 9.9, 7.2
3369, 9.8, 7.3
3370, 9.9, 7.4
3371, 9.8, 7.5
3372, 9.9, 7.6
3373, 9.8, 7.7
3374, 9.9, 7.8
3375, 9.8, 7.9
3376, 9.9, 8
3377, 9.8, 8.1
3378, 9.9, 8.2
3379, 9.8, 8.3
3380, 9.9, 8.4
3381, 9.8, 8.5
3382, 9.9, 8.6
3383, 9.8, 8.7
3384, 9.9, 8.8
3385, 9.8, 8.9
3386, 9.9, 9
3387, 9.8, 9.1
3388, 9.9, 9.2
3389, 9.8, 9.3
3390, 9.9, 9.4
3391, 9.8, 9.5
3392, 9.9, 9.6
3393, 9.8, 9.7
3394, 9.9, 9.8
3395, 9.8, 9.9
3396, 9.6, 0.1
3397, 9.7, 0.2
3398, 9.6, 0.3
3399, 9.7, 0.4
3400, 9.6, 0.5
3401, 9.7, 0.6
3402, 9.6, 0.7
3403, 9.7, 0.8
3404, 9.6, 0.9
3405, 9.7, 1
3406, 9.6, 1.1
3407, 9.7, 1.2
3408, 9.6, 1.3
3409, 9.7, 1.4
3410, 9.6, 1.5
3411, 9.7, 1.6
3412, 9.6, 1.7
3413, 9.7, 1.8
3414, 9.6, 1.9
3415, 9.7, 2
3416, 9.6, 2.1
3417, 9.7, 2.2
3418, 9.6, 2.3
3419, 9.7, 2.4
3420, 9.6, 2.5
3421, 9.7, 2.6
3422, 9.6, 2.7
3423, 9.7, 2.8
3424, 9.6, 2.9
3425, 9.7, 3
3426, 9.6, 3.1
3427, 9.7, 3.2
3428, 9.6, 3.3
3429, 9.7, 3.4
3430, 9.6, 3.5
3431, 9.7, 3.6
3432, 9.6, 3.7
3433, 9.7, 3.8
3434, 9.6, 3.9
3435, 9.7, 4
3436, 9.6, 4.1
3437, 9.7, 4.2
3438, 9.6, 4.3
3439, 9.7, 4.4
3440, 9.6, 4.5
3441, 9.7, 4.6
3442, 9.6, 4.7
3443, 9.7, 4.8
3444, 9.6, 4.9
3445, 9.7, 5
3446, 9.6, 5.1
3447, 9.7, 5.2
3448, 9.6, 5.3
3449, 9.7, 5.4
3450, 9.6, 5.5
3451, 9.7, 5.6
3452, 9.6, 5.7
3453, 9.7, 5.8
3454, 9.6, 5.9
3455, 9.7, 6
3456, 9.6, 6.1
3457, 9.7, 6.2
3458, 9.6, 6.3
3459, 9.7, 6.4
3460, 9.6, 6.5
3461, 9.7, 6.6
3462, 9.6, 6.7
3463, 9.7, 6.8
3464, 9.6, 6.9
3465, 9.7, 7
3466, 9.6, 7.1
3467, 9.7, 7.2
3468, 9.6, 7.3
3469, 9.7, 7.4
3470, 9.6, 7.5
3471, 9.7, 7.6
3472, 9.6, 7.7
3473, 9.7, 7.8
3474, 9.6, 7.9
3475, 9.7, 8
3476, 9.6, 8.1
3477, 9.7, 8.2
3478, 9.6, 8.3
3479, 9.7, 8.4
3480, 9.6, 8.5
3481, 9.7, 8.6
3482, 9.6, 8.7
3483, 9.7, 8.8
3484, 9.6, 8.9
3485, 9.7, 9
3486, 9.6, 9.1
3487, 9.7, 9.2
3488, 9.6, 9.3
3489, 9.7, 9.4
3490, 9.6, 9.5
3491, 9.7, 9.6
3492, 9.6, 9.7
3493, 9.7, 9.8
3494, 9.6, 9.9
3495, 9.4, 0.1
3496, 9.5, 0.2
3497, 9.4, 0.3
3498, 9.5, 0.4
3499, 9.4, 0.5
3500, 9.5, 0.6
3501, 9.4, 0.7
3502, 9.5, 0.8
3503, 9.4, 0.9
3504, 9.5, 1
3505, 9.4, 1.1
3506, 9.5, 1.2
3507, 9.4, 1.3
3508, 9.5, 1.4
3509, 9.4, 1.5
3510, 9.5, 1.6
3511, 9.4, 1.7
3512, 9.5, 1.8
3513, 9.4, 1.9
3514, 9.5, 2
3515, 9.4, 2.1
3516, 9.5, 2.2
3517, 9.4, 2.3
3518, 9.5, 2.4
3519, 9.4, 2.5
3520, 9.5, 2.6
3521, 9.4, 2.7
3522, 9.5, 2.8
3523, 9.4, 2.9
3524, 9.5, 3
3525, 9.4, 3.1
3526, 9.5, 3.2
3527, 9.4, 3.3
3528, 9.5, 3.4
3529, 9.4, 3.5
3530, 9.5, 3.6
3531, 9.4, 3.7
3532, 9.5, 3.8
3533, 9.4, 3.9
3534, 9.5, 4
3535, 9.4, 4.1
3536, 9.5, 4.2
3537, 9.4, 4.3
3538, 9.5, 4.4
3539, 9.4, 4.5
3540, 9.5, 4.6
3541, 9.4, 4.7
3542, 9.5, 4.8
3543, 9.4, 4.9
3544, 9.5, 5
3545, 9.4, 5.1
3546, 9.5, 5.2
3547, 9.4, 5.3
3548, 9.5, 5.4
3549, 9.4, 5.5
3550, 9.5, 5.6
3551, 9.4, 5.7
3552, 9.5, 5.8
3553, 9.4, 5.9
3554, 9.5, 6
3555, 9.4, 6.1
3556, 9.5, 6.2
3557, 9.4, 6.3
3558, 9.5, 6.4
3559, 9.4, 6.5
3560, 9.5, 6.6
3561, 9.4, 6.7
3562, 9.5, 6.8
3563, 9.4, 6.9
3564, 9.5, 7
3565, 9.4, 7.1
3566, 9.5, 7.2
3567, 9.4, 7.3
3568, 9.5, 7.4
3569, 9.4, 7.5
3570, 9.5, 7.6
3571, 9.4, 7.7
3572, 9.5, 7.8
3573, 9.4, 7.9
3574, 9.5, 8
3575, 9.4, 8.1
3576, 9.5, 8.2
3577, 9.4, 8.3
3578, 9.5, 8.4
3579, 9.4, 8.5
3580, 9.5, 8.6
3581, 9.4, 8.7
3582, 9.5, 8.8
3583, 9.4, 8.9
3584, 9.5, 9
3585, 9.4, 9.1
3586, 9.5, 9.2
3587, 9.4, 9.3
3588, 9.5, 9.4
3589, 9.4, 9.5
3590, 9.5, 9.6
3591, 9.4, 9.7
3592, 9.5, 9.8
3593, 9.4, 9.9
3594, 9.2, 0.1
3595, 9.3, 0.2
3596, 9.2, 0.3
3597, 9.3, 0.4
3598, 9.2, 0.5
3599, 9.3, 0.6
3600, 9.2, 0.7
3601, 9.3, 0.8
3602, 9.2, 0.9
3603, 9.3, 1
3604, 9.2, 1.1
3605, 9.3, 1.2
3606, 9.2, 1.3
3607, 9.3, 1.4
3608, 9.2, 1.5
3609, 9.3, 1.6
3610, 9.2, 1.7
3611, 9.3, 1.8
3612, 9.2, 1.9
3613, 9.3, 2
3614, 9.2, 2.1
3615, 9.3, 2.2
3616, 9.2, 2.3
3617, 9.3, 2.4
3618, 9.2, 2.5
3619, 9.3, 2.6
3620, 9.2, 2.7
3621, 9.3, 2.8
3622, 9.2, 2.9
3623, 9.3, 3
3624, 9.2, 3.1
3625, 9.3, 3.2
3626, 9.2, 3.3
3627, 9.3, 3.4
3628, 9.2, 3.5
3629, 9.3, 3.6
3630, 9.2, 3.7
3631, 9.3, 3.8
3632, 9.2, 3.9
3633, 9.3, 4
3634, 9.2, 4.1
3635, 9.3, 4.2
3636, 9.2, 4.3
3637, 9.3, 4.4
3638, 9.2, 4.5
3639, 9.3, 4.6
3640, 9.2, 4.7
3641, 9.3, 4.8
3642, 9.2, 4.9
3643, 9.3, 5
3644, 9.2, 5.1
3645, 9.3, 5.2
3646, 9.2, 5.3
3647, 9.3, 5.4
3648, 9.2, 5.5
3649, 9.3, 5.6
3650, 9.2, 5.7
3651, 9.3, 5.8
3652, 9.2, 5.9
3653, 9.3, 6
3654, 9.2, 6.1
3655, 9.3, 6.2
3656, 9.2, 6.3
3657, 9.3, 6.4
3658, 9.2, 6.5
3659, 9.3, 6.6
3660, 9.2, 6.7
3661, 9.3, 6.8
3662, 9.2, 6.9
3663, 9.3, 7
3664, 9.2, 7.1
3665, 9.3, 7.2
3666, 9.2, 7.3
3667, 9.3, 7.4
3668, 9.2, 7.5
3669, 9.3, 7.6
3670, 9.2, 7.7
3671, 9.3, 7.8
3672, 9.2, 7.9
3673, 9.3, 8
3674, 9.2, 8.1
3675, 9.3, 8.2
3676, 9.2, 8.3
3677, 9.3, 8.4
3678, 9.2, 8.5
3679, 9.3, 8.6
3680, 9.2, 8.7
3681, 9.3, 8.8
3682, 9.2, 8.9
3683, 9.3, 9
3684, 9.2, 9.1
3685, 9.3, 9.2
3686, 9.2, 9.3
3687, 9.3, 9.4
3688, 9.2, 9.5
3689, 9.3, 9.6
3690, 9.2, 9.7
3691, 9.3, 9.8
3692, 9.2, 9.9
3693, 9, 0.1
3694, 9.1, 0.2
3695, 9, 0.3
3696, 9.1, 0.4
3697, 9, 0.5
3698, 9.1, 0.6
3699, 9, 0.7
3700, 9.1, 0.8
3701, 9, 0.9
3702, 9.1, 1
3703, 9, 1.1
3704, 9.1, 1.2
3705, 9, 1.3
3706, 9.1, 1.4
3707, 9, 1.5
3708, 9.1, 1.6
3709, 9, 1.7
3710, 9.1, 1.8
3711, 9, 1.9
3712, 9.1, 2
3713, 9, 2.1
3714, 9.1, 2.2
3715, 9, 2.3
3716, 9.1, 2.4
3717, 9, 2.5
3718, 9.1, 2.6
3719, 9, 2.7
3720, 9.1, 2.8
3721, 9, 2.9
3722, 9.1, 3
3723, 9, 3.1
3724, 9.1, 3.2
3725, 9, 3.3
3726, 9.1, 3.4
3727, 9, 3.5
3728, 9.1, 3.6
3729, 9, 3.7
3730, 9.1, 3.8
3731, 9, 3.9
3732, 9.1, 4
3733, 9, 4.1
3734, 9.1, 4.2
3735, 9, 4.3
3736, 9.1, 4.4
3737, 9, 4.5
3738, 9.1, 4.6
3739, 9, 4.7
3740, 9.1, 4.8
3741, 9, 4.9
3742, 9.1, 5
3743, 9, 5.1
3744, 9.1, 5.2
3745, 9, 5.3
3746, 9.1, 5.4
3747, 9, 5.5
3748, 9.1, 5.6
3749, 9, 5.7
3750, 9.1, 5.8
3751, 9, 5.9
3752, 9.1, 6
3753, 9, 6.1
3754, 9.1, 6.2
3755, 9, 6.3
3756, 9.1, 6.4
3757, 9, 6.5
3758, 9.1, 6.6
3759, 9, 6.7
3760, 9.1, 6.8
3761, 9, 6.9
3762, 9.1, 7
3763, 9, 7.1
3764, 9.1, 7.2
3765, 9, 7.3
3766, 9.1, 7.4
3767, 9, 7.5
3768, 9.1, 7.6
3769, 9, 7.7
3770, 9.1, 7.8
3771, 9, 7.9
3772, 9.1, 8
3773, 9, 8.1
3774, 9.1, 8.2
3775, 9, 8.3
3776, 9.1, 8.4
3777, 9, 8.5
3778, 9.1, 8.6
3779, 9, 8.7
3780, 9.1, 8.8
3781, 9, 8.9
3782, 9.1, 9
3783, 9, 9.1
3784, 9.1, 9.2
3785, 9, 9.3
3786, 9.1, 9.4
3787, 9, 9.5
3788, 9.1, 9.6
3789, 9, 9.7
3790, 9.1, 9.8
3791, 9, 9.9
3792, 8.8, 0.1
3793, 8.9, 0.2
3794, 8.8, 0.3
3795, 8.9, 0.4
3796, 8.8, 0.5
3797, 8.9, 0.6
3798, 8.8, 0.7
3799, 8.9, 0.8
3800, 8.8, 0.9
3801, 8.9, 1
3802, 8.8, 1.1
3803, 8.9, 1.2
3804, 8.8, 1.3
3805, 8.9, 1.4
3806, 8.8, 1.5
3807, 8.9, 1.6
3808, 8.8, 1.7
3809, 8.9, 1.8
3810, 8.8, 1.9
3811, 8.9, 2
3812, 8.8, 2.1
3813, 8.9, 2.2
3814, 8.8, 2.3
3815, 8.9, 2.4
3816, 8.8, 2.5
3817, 8.9, 2.6
3818, 8.8, 2.7
3819, 8.9, 2.8
3820, 8.8, 2.9
3821, 8.9, 3
3822, 8.8, 3.1
3823, 8.9, 3.2
3824, 8.8, 3.3
3825, 8.9, 3.4
3826, 8.8, 3.5
3827, 8.9, 3.6
3828, 8.8, 3.7
3829, 8.9, 3.8
3830, 8.8, 3.9
3831, 8.9, 4
3832, 8.8, 4.1
3833, 8.9, 4.2
3834, 8.8, 4.3
3835, 8.9, 4.4
3836, 8.8, 4.5
3837, 8.9, 4.6
3838, 8.8, 4.7
3839, 8.9, 4.8
3840, 8.8, 4.9
3841, 8.9, 5
3842, 8.8, 5.1
3843, 8.9, 5.2
3844, 8.8, 5.3
3845, 8.9, 5.4
3846, 8.8, 5.5
3847, 8.9, 5.6
3848, 8.8, 5.7
3849, 8.9, 5.8
3850, 8.8, 5.9
3851, 8.9, 6
3852, 8.8, 6.1
3853, 8.9, 6.2
3854, 8.8, 6.3
3855, 8.9, 6.4
3856, 8.8, 6.5
3857, 8.9, 6.6
3858, 8.8, 6.7
3859, 8.9, 6.8
3860, 8.8, 6.9
3861, 8.9, 7
3862, 8.8, 7.1
3863, 8.9, 7.2
3864, 8.8, 7.3
3865, 8.9, 7.4
3866, 8.8, 7.5
3867, 8.9, 7.6
3868, 8.8, 7.7
3869, 8.9, 7.8
3870, 8.8, 7.9
3871, 8.9, 8
3872, 8.8, 8.1
3873, 8.9, 8.2
3874, 8.8, 8.3
3875, 8.9, 8.4
3876, 8.8, 8.5
3877, 8.9, 8.6
3878, 8.8, 8.7
3879, 8.9, 8.8
3880, 8.8, 8.9
3881, 8.9, 9
3882, 8.8, 9.1
3883, 8.9, 9.2
3884, 8.8, 9.3
3885, 8.9, 9.4
3886, 8.8, 9.5
3887, 8.9, 9.6
3888, 8.8, 9.7
3889, 8.9, 9.8
3890, 8.8, 9.9
3891, 8.6, 0.1
3892, 8.7, 0.2
3893, 8.6, 0.3
3894, 8.7, 0.4
3895, 8.6, 0.5
3896, 8.7, 0.6
3897, 8.6, 0.7
3898, 8.7, 0.8
3899, 8.6, 0.9
3900, 8.7, 1
3901, 8.6, 1.1
3902, 8.7, 1.2
3903, 8.6, 1.3
3904, 8.7, 1.4
3905, 8.6, 1.5
3906, 8.7, 1.6
3907, 8.6, 1.7
3908, 8.7, 1.8
3909, 8.6, 1.9
3910, 8.7, 2
3911, 8.6, 2.1
3912, 8.7, 2.2
3913, 8.6, 2.3
3914, 8.7, 2.4
3915, 8.6, 2.5
3916, 8.7, 2.6
3917, 8.6, 2.7
3918, 8.7, 2.8
3919, 8.6, 2.9
3920, 8.7, 3
3921, 8.6, 3.1
3922, 8.7, 3.2
3923, 8.6, 3.3
3924, 8.7, 3.4
3925, 8.6, 3.5
3926, 8.7, 3.6
3927, 8.6, 3.7
3928, 8.7, 3.8
3929, 8.6, 3.9
3930, 8.7, 4
3931, 8.6, 4.1
3932, 8.7, 4.2
3933, 8.6, 4.3
3934, 8.7, 4.4
3935, 8.6, 4.5
3936, 8.7, 4.6
3937, 8.6, 4.7
3938, 8.7, 4.8
3939, 8.6, 4.9
3940, 8.7, 5
3941, 8.6, 5.1
3942, 8.7, 5.2
3943, 8.6, 5.3
3944, 8.7, 5.4
3945, 8.6, 5.5
3946, 8.7, 5.6
3947, 8.6, 5.7
3948, 8.7, 5.8
3949, 8.6, 5.9
3950, 8.7, 6
3951, 8.6, 6.1
3952, 8.7, 6.2
3953, 8.6, 6.3
3954, 8.7, 6.4
3955, 8.6, 6.5
3956, 8.7, 6.6
3957, 8.6, 6.7
3958, 8.7, 6.8
3959, 8.6, 6.9
3960, 8.7, 7
3961, 8.6, 7.1
3962, 8.7, 7.2
3963, 8.6, 7.3
3964, 8.7, 7.4
3965, 8.6, 7.5
3966, 8.7, 7.6
3967, 8.6, 7.7
3968, 8.7, 7.8
3969, 8.6, 7.9
3970, 8.7, 8
3971, 8.6, 8.1
3972, 8.7, 8.2
3973, 8.6, 8.3
3974, 8.7, 8.4
3975, 8.6, 8.5
3976, 8.7, 8.6
3977, 8.6, 8.7
3978, 8.7, 8.8
3979, 8.6, 8.9
3980, 8.7, 9
3981, 8.6, 9.1
3982, 8.7, 9.2
3983, 8.6, 9.3
3984, 8.7, 9.4
3985, 8.6, 9.5
3986, 8.7, 9.6
3987, 8.6, 9.7
3988, 8.7, 9.8
3989, 8.6, 9.9
3990, 8.4, 0.1
3991, 8.5, 0.2
3992, 8.4, 0.3
3993, 8.5, 0.4
3994, 8.4, 0.5
3995, 8.5, 0.6
3996, 8.4, 0.7
3997, 8.5, 0.8
3998, 8.4, 0.9
3999, 8.5, 1
4000, 8.4, 1.1
4001, 8.5, 1.2
4002, 8.4, 1.3
4003, 8.5, 1.4
4004, 8.4, 1.5
4005, 8.5, 1.6
4006, 8.4, 1.7
4007, 8.5, 1.8
4008, 8.4, 1.9
4009, 8.5, 2
4010, 8.4, 2.1
4011, 8.5, 2.2
4012, 8.4, 2.3
4013, 8.5, 2.4
4014, 8.4, 2.5
4015, 8.5, 2.6
4016, 8.4, 2.7
4017, 8.5, 2.8
4018, 8.4, 2.9
4019, 8.5, 3
4020, 8.4, 3.1
4021, 8.5, 3.2
4022, 8.4, 3.3
4023, 8.5, 3.4
4024, 8.4, 3.5
4025, 8.5, 3.6
4026, 8.4, 3.7
4027, 8.5, 3.8
4028, 8.4, 3.9
4029, 8.5, 4
4030, 8.4, 4.1
4031, 8.5, 4.2
4032, 8.4, 4.3
4033, 8.5, 4.4
4034, 8.4, 4.5
4035, 8.5, 4.6
4036, 8.4, 4.7
4037, 8.5, 4.8
4038, 8.4, 4.9
4039, 8.5, 5
4040, 8.4, 5.1
4041, 8.5, 5.2
4042, 8.4, 5.3
4043, 8.5, 5.4
4044, 8.4, 5.5
4045, 8.5, 5.6
4046, 8.4, 5.7
4047, 8.5, 5.8
4048, 8.4, 5.9
4049, 8.5, 6
4050, 8.4, 6.1
4051, 8.5, 6.2
4052, 8.4, 6.3
4053, 8.5, 6.4
4054, 8.4, 6.5
4055, 8.5, 6.6
4056, 8.4, 6.7
4057, 8.5, 6.8
4058, 8.4, 6.9
4059, 8.5, 7
4060, 8.4, 7.1
4061, 8.5, 7.2
4062, 8.4, 7.3
4063, 8.5, 7.4
4064, 8.4, 7.5
4065, 8.5, 7.6
4066, 8.4, 7.7
4067, 8.5, 7.8
4068, 8.4, 7.9
4069, 8.5, 8
4070, 8.4, 8.1
4071, 8.5, 8.2
4072, 8.4, 8.3
4073, 8.5, 8.4
4074, 8.4, 8.5
4075, 8.5, 8.6
4076, 8.4, 8.7
4077, 8.5, 8.8
4078, 8.4, 8.9
4079, 8.5, 9
4080, 8.4, 9.1
4081, 8.5, 9.2
4082, 8.4, 9.3
4083, 8.5, 9.4
4084, 8.4, 9.5
4085, 8.5, 9.6
4086, 8.4, 9.7
4087, 8.5, 9.8
4088, 8.4, 9.9
4089, 8.2, 0.1
4090, 8.3, 0.2
4091, 8.2, 0.3
4092, 8.3, 0.4
4093, 8.2, 0.5
4094, 8.3, 0.6
4095, 8.2, 0.7
4096, 8.3, 0.8
4097, 8.2, 0.9
4098, 8.3, 1
4099, 8.2, 1.1
4100, 8.3, 1.2
4101, 8.2, 1.3
4102, 8.3, 1.4
4103, 8.2, 1.5
4104, 8.3, 1.6
4105, 8.2, 1.7
4106, 8.3, 1.8
4107, 8.2, 1.9
4108, 8.3, 2
4109, 8.2, 2.1
4110, 8.3, 2.2
4111, 8.2, 2.3
4112, 8.3, 2.4
4113, 8.2, 2.5
4114, 8.3, 2.6
4115, 8.2, 2.7
4116, 8.3, 2.8
4117, 8.2, 2.9
4118, 8.3, 3
4119, 8.2, 3.1
4120, 8.3, 3.2
4121, 8.2, 3.3
4122, 8.3, 3.4
4123, 8.2, 3.5
4124, 8.3, 3.6
4125, 8.2, 3.7
4126, 8.3, 3.8
4127, 8.2, 3.9
4128, 8.3, 4
4129, 8.2, 4.1
4130, 8.3, 4.2
4131, 8.2, 4.3
4132, 8.3, 4.4
4133, 8.2, 4.5
4134, 8.3, 4.6
4135, 8.2, 4.7
4136, 8.3, 4.8
4137, 8.2, 4.9
4138, 8.3, 5
4139, 8.2, 5.1
4140, 8.3, 5.2
4141, 8.2, 5.3
4142, 8.3, 5.4
4143, 8.2, 5.5
4144, 8.3, 5.6
4145, 8.2, 5.7
4146, 8.3, 5.8
4147, 8.2, 5.9
4148, 8.3, 6
4149, 8.2, 6.1
4150, 8.3, 6.2
4151, 8.2, 6.3
4152, 8.3, 6.4
4153, 8.2, 6.5
4154, 8.3, 6.6
4155, 8.2, 6.7
4156, 8.3, 6.8
4157, 8.2, 6.9
4158, 8.3, 7
4159, 8.2, 7.1
4160, 8.3, 7.2
4161, 8.2, 7.3
4162, 8.3, 7.4
4163, 8.2, 7.5
4164, 8.3, 7.6
4165, 8.2, 7.7
4166, 8.3, 7.8
4167, 8.2, 7.9
4168, 8.3, 8
4169, 8.2, 8.1
4170, 8.3, 8.2
4171, 8.2, 8.3
4172, 8.3, 8.4
4173, 8.2, 8.5
4174, 8.3, 8.6
4175, 8.2, 8.7
4176, 8.3, 8.8
4177, 8.2, 8.9
4178, 8.3, 9
4179, 8.2, 9.1
4180, 8.3, 9.2
4181, 8.2, 9.3
4182, 8.3, 9.4
4183, 8.2, 9.5
4184, 8.3, 9.6
4185, 8.2, 9.7
4186, 8.3, 9.8
4187, 8.2, 9.9
4188, 8, 0.1
4189, 8.1, 0.2
4190, 8, 0.3
4191, 8.1, 0.4
4192, 8, 0.5
4193, 8.1, 0.6
4194, 8, 0.7
4195, 8.1, 0.8
4196, 8, 0.9
4197, 8.1, 1
4198, 8, 1.1
4199, 8.1, 1.2
4200, 8, 1.3
4201, 8.1, 1.4
4202, 8, 1.5
4203, 8.1, 1.6
4204, 8, 1.7
4205, 8.1, 1.8
4206, 8, 1.9
4207, 8.1, 2
4208, 8, 2.1
4209, 8.1, 2.2
4210, 8, 2.3
4211, 8.1, 2.4
4212, 8, 2.5
4213, 8.1, 2.6
4214, 8, 2.7
4215, 8.1, 2.8
4216, 8, 2.9
4217, 8.1, 3
4218, 8, 3.1
4219, 8.1, 3.2
4220, 8, 3.3
4221, 8.1, 3.4
4222, 8, 3.5
4223, 8.1, 3.6
4224, 8, 3.7
4225, 8.1, 3.8
4226, 8, 3.9
4227, 8.1, 4
4228, 8, 4.1
4229, 8.1, 4.2
4230, 8, 4.3
4231, 8.1, 4.4
4232, 8, 4.5
4233, 8.1, 4.6
4234, 8, 4.7
4235, 8.1, 4.8
4236, 8, 4.9
4237, 8.1, 5
4238, 8, 5.1
4239, 8.1, 5.2
4240, 8, 5.3
4241, 8.1, 5.4
4242, 8, 5.5
4243, 8.1, 5.6
4244, 8, 5.7
4245, 8.1, 5.8
4246, 8, 5.9
4247, 8.1, 6
4248, 8, 6.1
4249, 8.1, 6.2
4250, 8, 6.3
4251, 8.1, 6.4
4252, 8, 6.5
4253, 8.1, 6.6
4254, 8, 6.7
4255, 8.1, 6.8
4256, 8, 6.9
4257, 8.1, 7
4258, 8, 7.1
4259, 8.1, 7.2
4260, 8, 7.3
4261, 8.1, 7.4
4262, 8, 7.5
4263, 8.1, 7.6
4264, 8, 7.7
4265, 8.1, 7.8
4266, 8, 7.9
4267, 8.1, 8
4268, 8, 8.1
4269, 8.1, 8.2
4270, 8, 8.3
4271, 8.1, 8.4
4272, 8, 8.5
4273, 8.1, 8.6
4274, 8, 8.7
4275, 8.1, 8.8
4276, 8, 8.9
4277, 8.1, 9
4278, 8, 9.1
4279, 8.1, 9.2
4280, 8, 9.3
4281, 8.1, 9.4
4282, 8, 9.5
4283, 8.1, 9.6
4284, 8, 9.7
4285, 8.1, 9.8
4286, 8, 9.9
4287, 7.8, 0.1
4288, 7.9, 0.2
4289, 7.8, 0.3
4290, 7.9, 0.4
4291, 7.8, 0.5
4292, 7.9, 0.6
4293, 7.8, 0.7
4294, 7.9, 0.8
4295, 7.8, 0.9
4296, 7.9, 1
4297, 7.8, 1.1
4298, 7.9, 1.2
4299, 7.8, 1.3
4300, 7.9, 1.4
4301, 7.8, 1.5
4302, 7.9, 1.6
4303, 7.8, 1.7
4304, 7.9, 1.8
4305, 7.8, 1.9
4306, 7.9, 2
4307, 7.8, 2.1
4308, 7.9, 2.2
4309, 7.8, 2.3
4310, 7.9, 2.4
4311, 7.8, 2.5
4312, 7.9, 2.6
4313, 7.8, 2.7
4314, 7.9, 2.8
4315, 7.8, 2.9
4316, 7.9, 3
4317, 7.8, 3.1
4318, 7.9, 3.2
4319, 7.8, 3.3
4320, 7.9, 3.4
4321, 7.8, 3.5
4322, 7.9, 3.6
4323, 7.8, 3.7
4324, 7.9, 3.8
4325, 7.8, 3.9
4326, 7.9, 4
4327, 7.8, 4.1
4328, 7.9, 4.2
4329, 7.8, 4.3
4330, 7.9, 4.4
4331, 7.8, 4.5
4332, 7.9, 4.6
4333, 7.8, 4.7
4334, 7.9, 4.8
4335, 7.8, 4.9
4336, 7.9, 5
4337, 7.8, 5.1
4338, 7.9, 5.2
4339, 7.8, 5.3
4340, 7.9, 5.4
4341, 7.8, 5.5
4342, 7.9, 5.6
4343, 7.8, 5.7
4344, 7.9, 5.8
4345, 7.8, 5.9
4346, 7.9, 6
4347, 7.8, 6.1
4348, 7.9, 6.2
4349, 7.8, 6.3
4350, 7.9, 6.4
4351, 7.8, 6.5
4352, 7.9, 6.6
4353, 7.8, 6.7
4354, 7.9, 6.8
4355, 7.8, 6.9
4356, 7.9, 7
4357, 7.8, 7.1
4358, 7.9, 7.2
4359, 7.8, 7.3
4360, 7.9, 7.4
4361, 7.8, 7.5
4362, 7.9, 7.6
4363, 7.8, 7.7
4364, 7.9, 7.8
4365, 7.8, 7.9
4366, 7.9, 8
4367, 7.8, 8.1
4368, 7.9, 8.2
4369, 7.8, 8.3
4370, 7.9, 8.4
4371, 7.8, 8.5
4372, 7.9, 8.6
4373, 7.8, 8.7
4374, 7.9, 8.8
4375, 7.8, 8.9
4376, 7.9, 9
4377, 7.8, 9.1
4378, 7.9, 9.2
4379, 7.8, 9.3
4380, 7.9, 9.4
4381, 7.8, 9.5
4382, 7.9, 9.6
4383, 7.8, 9.7
4384, 7.9, 9.8
4385, 7.8, 9.9
4386, 7.6, 0.1
4387, 7.7, 0.2
4388, 7.6, 0.3
4389, 7.7, 0.4
4390, 7.6, 0.5
4391, 7.7, 0.6
4392, 7.6, 0.7
4393, 7.7, 0.8
4394, 7.6, 0.9
4395, 7.7, 1
4396, 7.6, 1.1
4397, 7.7, 1.2
4398, 7.6, 1.3
4399, 7.7, 1.4
4400, 7.6, 1.5
4401, 7.7, 1.6
4402, 7.6, 1.7
4403, 7.7, 1.8
4404, 7.6, 1.9
4405, 7.7, 2
4406, 7.6, 2.1
4407, 7.7, 2.2
4408, 7.6, 2.3
4409, 7.7, 2.4
4410, 7.6, 2.5
4411, 7.7, 2.6
4412, 7.6, 2.7
4413, 7.7, 2.8
4414, 7.6, 2.9
4415, 7.7, 3
4416, 7.6, 3.1
4417, 7.7, 3.2
4418, 7.6, 3.3
4419, 7.7, 3.4
4420, 7.6, 3.5
4421, 7.7, 3.6
4422, 7.6, 3.7
4423, 7.7, 3.8
4424, 7.6, 3.9
4425, 7.7, 4
4426, 7.6, 4.1
4427, 7.7, 4.2
4428, 7.6, 4.3
4429, 7.7, 4.4
4430, 7.6, 4.5
4431, 7.7, 4.6
4432, 7.6, 4.7
4433, 7.7, 4.8
4434, 7.6, 4.9
4435, 7.7, 5
4436, 7.6, 5.1
4437, 7.7, 5.2
4438, 7.6, 5.3
4439, 7.7, 5.4
4440, 7.6, 5.5
4441, 7.7, 5.6
4442, 7.6, 5.7
4443, 7.7, 5.8
4444, 7.6, 5.9
4445, 7.7, 6
4446, 7.6, 6.1
4447, 7.7, 6.2
4448, 7.6, 6.3
4449, 7.7, 6.4
4450, 7.6, 6.5
4451, 7.7, 6.6
4452, 7.6, 6.7
4453, 7.7, 6.8
4454, 7.6, 6.9
4455, 7.7, 7
4456, 7.6, 7.1
4457, 7.7, 7.2
4458, 7.6, 7.3
4459, 7.7, 7.4
4460, 7.6, 7.5
4461, 7.7, 7.6
4462, 7.6, 7.7
4463, 7.7, 7.8
4464, 7.6, 7.9
4465, 7.7, 8
4466, 7.6, 8.1
4467, 7.7, 8.2
4468, 7.6, 8.3
4469, 7.7, 8.4
4470, 7.6, 8.5
4471, 7.7, 8.6
4472, 7.6, 8.7
4473, 7.7, 8.8
4474, 7.6, 8.9
4475, 7.7, 9
4476, 7.6, 9.1
4477, 7.7, 9.2
4478, 7.6, 9.3
4479, 7.7, 9.4
4480, 7.6, 9.5
4481, 7.7, 9.6
4482, 7.6, 9.7
4483, 7.7, 9.8
4484, 7.6, 9.9
4485, 7.4, 0.1
4486, 7.5, 0.2
4487, 7.4, 0.3
4488, 7.5, 0.4
4489, 7.4, 0.5
4490, 7.5, 0.6
4491, 7.4, 0.7
4492, 7.5, 0.8
4493, 7.4, 0.9
4494, 7.5, 1
4495, 7.4, 1.1
4496, 7.5, 1.2
4497, 7.4, 1.3
4498, 7.5, 1.4
4499, 7.4, 1.5
4500, 7.5, 1.6
4501, 7.4, 1.7
4502, 7.5, 1.8
4503, 7.4, 1.9
4504, 7.5, 2
4505, 7.4, 2.1
4506, 7.5, 2.2
4507, 7.4, 2.3
4508, 7.5, 2.4
4509, 7.4, 2.5
4510, 7.5, 2.6
4511, 7.4, 2.7
4512, 7.5, 2.8
4513, 7.4, 2.9
4514, 7.5, 3
4515, 7.4, 3.1
4516, 7.5, 3.2
4517, 7.4, 3.3
4518, 7.5, 3.4
4519, 7.4, 3.5
4520, 7.5, 3.6
4521, 7.4, 3.7
4522, 7.5, 3.8
4523, 7.4, 3.9
4524, 7.5, 4
4525, 7.4, 4.1
4526, 7.5, 4.2
4527, 7.4, 4.3
4528, 7.5, 4.4
4529, 7.4, 4.5
4530, 7.5, 4.6
4531, 7.4, 4.7
4532, 7.5, 4.8
4533, 7.4, 4.9
4534, 7.5, 5
4535, 7.4, 5.1
4536, 7.5, 5.2
4537, 7.4, 5.3
4538, 7.5, 5.4
4539, 7.4, 5.5
4540, 7.5, 5.6
4541, 7.4, 5.7
4542, 7.5, 5.8
4543, 7.4, 5.9
4544, 7.5, 6
4545, 7.4, 6.1
4546, 7.5, 6.2
4547, 7.4, 6.3
4548, 7.5, 6.4
4549, 7.4, 6.5
4550, 7.5, 6.6
4551, 7.4, 6.7
4552, 7.5, 6.8
4553, 7.4, 6.9
4554, 7.5, 7
4555, 7.4, 7.1
4556, 7.5, 7.2
4557, 7.4, 7.3
4558, 7.5, 7.4
4559, 7.4, 7.5
4560, 7.5, 7.6
4561, 7.4, 7.7
4562, 7.5, 7.8
4563, 7.4, 7.9
4564, 7.5, 8
4565, 7.4, 8.1
4566, 7.5, 8.2
4567, 7.4, 8.3
4568, 7.5, 8.4
4569, 7.4, 8.5
4570, 7.5, 8.6
4571, 7.4, 8.7
4572, 7.5, 8.8
4573, 7.4, 8.9
4574, 7.5, 9
4575, 7.4, 9.1
4576, 7.5, 9.2
4577, 7.4, 9.3
4578, 7.5, 9.4
4579, 7.4, 9.5
4580, 7.5, 9.6
4581, 7.4, 9.7
4582, 7.5, 9.8
4583, 7.4, 9.9
4584, 7.2, 0.1
4585, 7.3, 0.2
4586, 7.2, 0.3
4587, 7.3, 0.4
4588, 7.2, 0.5
4589, 7.3, 0.6
4590, 7.2, 0.7
4591, 7.3, 0.8
4592, 7.2, 0.9
4593, 7.3, 1
4594, 7.2, 1.1
4595, 7.3, 1.2
4596, 7.2, 1.3
4597, 7.3, 1.4
4598, 7.2, 1.5
4599, 7.3, 1.6
4600, 7.2, 1.7
4601, 7.3, 1.8
4602, 7.2, 1.9
4603, 7.3, 2
4604, 7.2, 2.1
4605, 7.3, 2.2
4606, 7.2, 2.3
4607, 7.3, 2.4
4608, 7.2, 2.5
4609, 7.3, 2.6
4610, 7.2, 2.7
4611, 7.3, 2.8
4612, 7.2, 2.9
4613, 7.3, 3
4614, 7.2, 3.1
4615, 7.3, 3.2
4616, 7.2, 3.3
4617, 7.3, 3.4
4618, 7.2, 3.5
4619, 7.3, 3.6
4620, 7.2, 3.7
4621, 7.3, 3.8
4622, 7.2, 3.9
4623, 7.3, 4
4624, 7.2, 4.1
4625, 7.3, 4.2
4626, 7.2, 4.3
4627, 7.3, 4.4
4628, 7.2, 4.5
4629, 7.3, 4.6
4630, 7.2, 4.7
4631, 7.3, 4.8
4632, 7.2, 4.9
4633, 7.3, 5
4634, 7.2, 5.1
4635, 7.3, 5.2
4636, 7.2, 5.3
4637, 7.3, 5.4
4638, 7.2, 5.5
4639, 7.3, 5.6
4640, 7.2, 5.7
4641, 7.3, 5.8
4642, 7.2, 5.9
4643, 7.3, 6
4644, 7.2, 6.1
4645, 7.3, 6.2
4646, 7.2, 6.3
4647, 7.3, 6.4
4648, 7.2, 6.5
4649, 7.3, 6.6
4650, 7.2, 6.7
4651, 7.3, 6.8
4652, 7.2, 6.9
4653, 7.3, 7
4654, 7.2, 7.1
4655, 7.3, 7.2
4656, 7.2, 7.3
4657, 7.3, 7.4
4658, 7.2, 7.5
4659, 7.3, 7.6
4660, 7.2, 7.7
4661, 7.3, 7.8
4662, 7.2, 7.9
4663, 7.3, 8
4664, 7.2, 8.1
4665, 7.3, 8.2
4666, 7.2, 8.3
4667, 7.3, 8.4
4668, 7.2, 8.5
4669, 7.3, 8.6
4670, 7.2, 8.7
4671, 7.3, 8.8
4672, 7.2, 8.9
4673, 7.3, 9
4674, 7.2, 9.1
4675, 7.3, 9.2
4676, 7.2, 9.3
4677, 7.3, 9.4
4678, 7.2, 9.5
4679, 7.3, 9.6
4680, 7.2, 9.7
4681, 7.3, 9.8
4682, 7.2, 9.9
4683, 7, 0.1
4684, 7.1, 0.2
4685, 7, 0.3
4686, 7.1, 0.4
4687, 7, 0.5
4688, 7.1, 0.6
4689, 7, 0.7
4690, 7.1, 0.8
4691, 7, 0.9
4692, 7.1, 1
4693, 7, 1.1
4694, 7.1, 1.2
4695, 7, 1.3
4696, 7.1, 1.4
4697, 7, 1.5
4698, 7.1, 1.6
4699, 7, 1.7
4700, 7.1, 1.8
4701, 7, 1.9
4702, 7.1, 2
4703, 7, 2.1
4704, 7.1, 2.2
4705, 7, 2.3
4706, 7.1, 2.4
4707, 7, 2.5
4708, 7.1, 2.6
4709, 7, 2.7
4710, 7.1, 2.8
4711, 7, 2.9
4712, 7.1, 3
4713, 7, 3.1
4714, 7.1, 3.2
4715, 7, 3.3
4716, 7.1, 3.4
4717, 7, 3.5
4718, 7.1, 3.6
4719, 7, 3.7
4720, 7.1, 3.8
4721, 7, 3.9
4722, 7.1, 4
4723, 7, 4.1
4724, 7.1, 4.2
4725, 7, 4.3
4726, 7.1, 4.4
4727, 7, 4.5
4728, 7.1, 4.6
4729, 7, 4.7
4730, 7.1, 4.8
4731, 7, 4.9
4732, 7.1, 5
4733, 7, 5.1
4734, 7.1, 5.2
4735, 7, 5.3
4736, 7.1, 5.4
4737, 7, 5.5
4738, 7.1, 5.6
4739, 7, 5.7
4740, 7.1, 5.8
4741, 7, 5.9
4742, 7.1, 6
4743, 7, 6.1
4744, 7.1, 6.2
4745, 7, 6.3
4746, 7.1, 6.4
4747, 7, 6.5
4748, 7.1, 6.6
4749, 7, 6.7
4750, 7.1, 6.8
4751, 7, 6.9
4752, 7.1, 7
4753, 7, 7.1
4754, 7.1, 7.2
4755, 7, 7.3
4756, 7.1, 7.4
4757, 7, 7.5
4758, 7.1, 7.6
4759, 7, 7.7
4760, 7.1, 7.8
4761, 7, 7.9
4762, 7.1, 8
4763, 7, 8.1
4764, 7.1, 8.2
4765, 7, 8.3
4766, 7.1, 8.4
4767, 7, 8.5
4768, 7.1, 8.6
4769, 7, 8.7
4770, 7.1, 8.8
4771, 7, 8.9
4772, 7.1, 9
4773, 7, 9.1
4774, 7.1, 9.2
4775, 7, 9.3
4776, 7.1, 9.4
4777, 7, 9.5
4778, 7.1, 9.6
4779, 7, 9.7
4780, 7.1, 9.8
4781, 7, 9.9
4782, 6.8, 0.1
4783, 6.9, 0.2
4784, 6.8, 0.3
4785, 6.9, 0.4
4786, 6.8, 0.5
4787, 6.9, 0.6
4788, 6.8, 0.7
4789, 6.9, 0.8
4790, 6.8, 0.9
4791, 6.9, 1
4792, 6.8, 1.1
4793, 6.9, 1.2
4794, 6.8, 1.3
4795, 6.9, 1.4
4796, 6.8, 1.5
4797, 6.9, 1.6
4798, 6.8, 1.7
4799, 6.9, 1.8
4800, 6.8, 1.9
4801, 6.9, 2
4802, 6.8, 2.1
4803, 6.9, 2.2
4804, 6.8, 2.3
4805, 6.9, 2.4
4806, 6.8, 2.5
4807, 6.9, 2.6
4808, 6.8, 2.7
4809, 6.9, 2.8
4810, 6.8, 2.9
4811, 6.9, 3
4812, 6.8, 3.1
4813, 6.9, 3.2
4814, 6.8, 3.3
4815, 6.9, 3.4
4816, 6.8, 3.5
4817, 6.9, 3.6
4818, 6.8, 3.7
4819, 6.9, 3.8
4820, 6.8, 3.9
4821, 6.9, 4
4822, 6.8, 4.1
4823, 6.9, 4.2
4824, 6.8, 4.3
4825, 6.9, 4.4
4826, 6.8, 4.5
4827, 6.9, 4.6
4828, 6.8, 4.7
4829, 6.9, 4.8
4830, 6.8, 4.9
4831, 6.9, 5
4832, 6.8, 5.1
4833, 6.9, 5.2
4834, 6.8, 5.3
4835, 6.9, 5.4
4836, 6.8, 5.5
4837, 6.9, 5.6
4838, 6.8, 5.7
4839, 6.9, 5.8
4840, 6.8, 5.9
4841, 6.9, 6
4842, 6.8, 6.1
4843, 6.9, 6.2
4844, 6.8, 6.3
4845, 6.9, 6.4
4846, 6.8, 6.5
4847, 6.9, 6.6
4848, 6.8, 6.7
4849, 6.9, 6.8
4850, 6.8, 6.9
4851, 6.9, 7
4852, 6.8, 7.1
4853, 6.9, 7.2
4854, 6.8, 7.3
4855, 6.9, 7.4
4856, 6.8, 7.5
4857, 6.9, 7.6
4858, 6.8, 7.7
4859, 6.9, 7.8
4860, 6.8, 7.9
4861, 6.9, 8
4862, 6.8, 8.1
4863, 6.9, 8.2
4864, 6.8, 8.3
4865, 6.9, 8.4
4866, 6.8, 8.5
4867, 6.9, 8.6
4868, 6.8, 8.7
4869, 6.9, 8.8
4870, 6.8, 8.9
4871, 6.9, 9
4872, 6.8, 9.1
4873, 6.9, 9.2
4874, 6.8, 9.3
4875, 6.9, 9.4
4876, 6.8, 9.5
4877, 6.9, 9.6
4878, 6.8, 9.7
4879, 6.9, 9.8
4880, 6.8, 9.9
4881, 6.6, 0.1
4882, 6.7, 0.2
4883, 6.6, 0.3
4884, 6.7, 0.4
4885, 6.6, 0.5
4886, 6.7, 0.6
4887, 6.6, 0.7
4888, 6.7, 0.8
4889, 6.6, 0.9
4890, 6.7, 1
4891, 6.6, 1.1
4892, 6.7, 1.2
4893, 6.6, 1.3
4894, 6.7, 1.4
4895, 6.6, 1.5
4896, 6.7, 1.6
4897, 6.6, 1.7
4898, 6.7, 1.8
4899, 6.6, 1.9
4900, 6.7, 2
4901, 6.6, 2.1
4902, 6.7, 2.2
4903, 6.6, 2.3
4904, 6.7, 2.4
4905, 6.6, 2.5
4906, 6.7, 2.6
4907, 6.6, 2.7
4908, 6.7, 2.8
4909, 6.6, 2.9
4910, 6.7, 3
4911, 6.6, 3.1
4912, 6.7, 3.2
4913, 6.6, 3.3
4914, 6.7, 3.4
4915, 6.6, 3.5
4916, 6.7, 3.6
4917, 6.6, 3.7
4918, 6.7, 3.8
4919, 6.6, 3.9
4920, 6.7, 4
4921, 6.6, 4.1
4922, 6.7, 4.2
4923, 6.6, 4.3
4924, 6.7, 4.4
4925, 6.6, 4.5
4926, 6.7, 4.6
4927, 6.6, 4.7
4928, 6.7, 4.8
4929, 6.6, 4.9
4930, 6.7, 5
4931, 6.6, 5.1
4932, 6.7, 5.2
4933, 6.6, 5.3
4934, 6.7, 5.4
4935, 6.6, 5.5
4936, 6.7, 5.6
4937, 6.6, 5.7
4938, 6.7, 5.8
4939, 6.6, 5.9
4940, 6.7, 6
4941, 6.6, 6.1
4942, 6.7, 6.2
4943, 6.6, 6.3
4944, 6.7, 6.4
4945, 6.6, 6.5
4946, 6.7, 6.6
4947, 6.6, 6.7
4948, 6.7, 6.8
4949, 6.6, 6.9
4950, 6.7, 7
4951, 6.6, 7.1
4952, 6.7, 7.2
4953, 6.6, 7.3
4954, 6.7, 7.4
4955, 6.6, 7.5
4956, 6.7, 7.6
4957, 6.6, 7.7
4958, 6.7, 7.8
4959, 6.6, 7.9
4960, 6.7, 8
4961, 6.6, 8.1
4962, 6.7, 8.2
4963, 6.6, 8.3
4964, 6.7, 8.4
4965, 6.6, 8.5
4966, 6.7, 8.6
4967, 6.6, 8.7
4968, 6.7, 8.8
4969, 6.6, 8.9
4970, 6.7, 9
4971, 6.6, 9.1
4972, 6.7, 9.2
4973, 6.6, 9.3
4974, 6.7, 9.4
4975, 6.6, 9.5
4976, 6.7, 9.6
4977, 6.6, 9.7
4978, 6.7, 9.8
4979, 6.6, 9.9
4980, 6.4, 0.1
4981, 6.5, 0.2
4982, 6.4, 0.3
4983, 6.5, 0.4
4984, 6.4, 0.5
4985, 6.5, 0.6
4986, 6.4, 0.7
4987, 6.5, 0.8
4988, 6.4, 0.9
4989, 6.5, 1
4990, 6.4, 1.1
4991, 6.5, 1.2
4992, 6.4, 1.3
4993, 6.5, 1.4
4994, 6.4, 1.5
4995, 6.5, 1.6
4996, 6.4, 1.7
4997, 6.5, 1.8
4998, 6.4, 1.9
4999, 6.5, 2
5000, 6.4, 2.1
5001, 6.5, 2.2
5002, 6.4, 2.3
5003, 6.5, 2.4
5004, 6.4, 2.5
5005, 6.5, 2.6
5006, 6.4, 2.7
5007, 6.5, 2.8
5008, 6.4, 2.9
5009, 6.5, 3
5010, 6.4, 3.1
5011, 6.5, 3.2
5012, 6.4, 3.3
5013, 6.5, 3.4
5014, 6.4, 3.5
5015, 6.5, 3.6
5016, 6.4, 3.7
5017, 6.5, 3.8
5018, 6.4, 3.9
5019, 6.5, 4
5020, 6.4, 4.1
5021, 6.5, 4.2
5022, 6.4, 4.3
5023, 6.5, 4.4
5024, 6.4, 4.5
5025, 6.5, 4.6
5026, 6.4, 4.7
5027, 6.5, 4.8
5028, 6.4, 4.9
5029, 6.5, 5
5030, 6.4, 5.1
5031, 6.5, 5.2
5032, 6.4, 5.3
5033, 6.5, 5.4
5034, 6.4, 5.5
5035, 6.5, 5.6
5036, 6.4, 5.7
5037, 6.5, 5.8
5038, 6.4, 5.9
5039, 6.5, 6
5040, 6.4, 6.1
5041, 6.5, 6.2
5042, 6.4, 6.3
5043, 6.5, 6.4
5044, 6.4, 6.5
5045, 6.5, 6.6
5046, 6.4, 6.7
5047, 6.5, 6.8
5048, 6.4, 6.9
5049, 6.5, 7
5050, 6.4, 7.1
5051, 6.5, 7.2
5052, 6.4, 7.3
5053, 6.5, 7.4
5054, 6.4, 7.5
5055, 6.5, 7.6
5056, 6.4, 7.7
5057, 6.5, 7.8
5058, 6.4, 7.9
5059, 6.5, 8
5060, 6.4, 8.1
5061, 6.5, 8.2
5062, 6.4, 8.3
5063, 6.5, 8.4
5064, 6.4, 8.5
5065, 6.5, 8.6
5066, 6.4, 8.7
5067, 6.5, 8.8
5068, 6.4, 8.9
5069, 6.5, 9
5070, 6.4, 9.1
5071, 6.5, 9.2
5072, 6.4, 9.3
5073, 6.5, 9.4
5074, 6.4, 9.5
5075, 6.5, 9.6
5076, 6.4, 9.7
5077, 6.5, 9.8
5078, 6.4, 9.9
5079, 6.2, 0.1
5080, 6.3, 0.2
5081, 6.2, 0.3
5082, 6.3, 0.4
5083, 6.2, 0.5
5084, 6.3, 0.6
5085, 6.2, 0.7
5086, 6.3, 0.8
5087, 6.2, 0.9
5088, 6.3, 1
5089, 6.2, 1.1
5090, 6.3, 1.2
5091, 6.2, 1.3
5092, 6.3, 1.4
5093, 6.2, 1.5
5094, 6.3, 1.6
5095, 6.2, 1.7
5096, 6.3, 1.8
5097, 6.2, 1.9
5098, 6.3, 2
5099, 6.2, 2.1
5100, 6.3, 2.2
5101, 6.2, 2.3
5102, 6.3, 2.4
5103, 6.2, 2.5
5104, 6.3, 2.6
5105, 6.2, 2.7
5106, 6.3, 2.8
5107, 6.2, 2.9
5108, 6.3, 3
5109, 6.2, 3.1
5110, 6.3, 3.2
5111, 6.2, 3.3
5112, 6.3, 3.4
5113, 6.2, 3.5
5114, 6.3, 3.6
5115, 6.2, 3.7
5116, 6.3, 3.8
5117, 6.2, 3.9
5118, 6.3, 4
5119, 6.2, 4.1
5120, 6.3, 4.2
5121, 6.2, 4.3
5122, 6.3, 4.4
5123, 6.2, 4.5
5124, 6.3, 4.6
5125, 6.2, 4.7
5126, 6.3, 4.8
5127, 6.2, 4.9
5128, 6.3, 5
5129, 6.2, 5.1
5130, 6.3, 5.2
5131, 6.2, 5.3
5132, 6.3, 5.4
5133, 6.2, 5.5
5134, 6.3, 5.6
5135, 6.2, 5.7
5136, 6.3, 5.8
5137, 6.2, 5.9
5138, 6.3, 6
5139, 6.2, 6.1
5140, 6.3, 6.2
5141, 6.2, 6.3
5142, 6.3, 6.4
5143, 6.2, 6.5
5144, 6.3, 6.6
5145, 6.2, 6.7
5146, 6.3, 6.8
5147, 6.2, 6.9
5148, 6.3, 7
5149, 6.2, 7.1
5150, 6.3, 7.2
5151, 6.2, 7.3
5152, 6.3, 7.4
5153, 6.2, 7.5
5154, 6.3, 7.6
5155, 6.2, 7.7
5156, 6.3, 7.8
5157, 6.2, 7.9
5158, 6.3, 8
5159, 6.2, 8.1
5160, 6.3, 8.2
5161, 6.2, 8.3
5162, 6.3, 8.4
5163, 6.2, 8.5
5164, 6.3, 8.6
5165, 6.2, 8.7
5166, 6.3, 8.8
5167, 6.2, 8.9
5168, 6.3, 9
5169, 6.2, 9.1
5170, 6.3, 9.2
5171, 6.2, 9.3
5172, 6.3, 9.4
5173, 6.2, 9.5
5174, 6.3, 9.6
5175, 6.2, 9.7
5176, 6.3, 9.8
5177, 6.2, 9.9
5178, 6, 0.1
5179, 6.1, 0.2
5180, 6, 0.3
5181, 6.1, 0.4
5182, 6, 0.5
5183, 6.1, 0.6
5184, 6, 0.7
5185, 6.1, 0.8
5186, 6, 0.9
5187, 6.1, 1
5188, 6, 1.1
5189, 6.1, 1.2
5190, 6, 1.3
5191, 6.1, 1.4
5192, 6, 1.5
5193, 6.1, 1.6
5194, 6, 1.7
5195, 6.1, 1.8
5196, 6, 1.9
5197, 6.1, 2
5198, 6, 2.1
5199, 6.1, 2.2
5200, 6, 2.3
5201, 6.1, 2.4
5202, 6, 2.5
5203, 6.1, 2.6
5204, 6, 2.7
5205, 6.1, 2.8
5206, 6, 2.9
5207, 6.1, 3
5208, 6, 3.1
5209, 6.1, 3.2
5210, 6, 3.3
5211, 6.1, 3.4
5212, 6, 3.5
5213, 6.1, 3.6
5214, 6, 3.7
5215, 6.1, 3.8
5216, 6, 3.9
5217, 6.1, 4
5218, 6, 4.1
5219, 6.1, 4.2
5220, 6, 4.3
5221, 6.1, 4.4
5222, 6, 4.5
5223, 6.1, 4.6
5224, 6, 4.7
5225, 6.1, 4.8
5226, 6, 4.9
5227, 6.1, 5
5228, 6, 5.1
5229, 6.1, 5.2
5230, 6, 5.3
5231, 6.1, 5.4
5232, 6, 5.5
5233, 6.1, 5.6
5234, 6, 5.7
5235, 6.1, 5.8
5236, 6, 5.9
5237, 6.1, 6
5238, 6, 6.1
5239, 6.1, 6.2
5240, 6, 6.3
5241, 6.1, 6.4
5242, 6, 6.5
5243, 6.1, 6.6
5244, 6, 6.7
5245, 6.1, 6.8
5246, 6, 6.9
5247, 6.1, 7
5248, 6, 7.1
5249, 6.1, 7.2
5250, 6, 7.3
5251, 6.1, 7.4
5252, 6, 7.5
5253, 6.1, 7.6
5254, 6, 7.7
5255, 6.1, 7.8
5256, 6, 7.9
5257, 6.1, 8
5258, 6, 8.1
5259, 6.1, 8.2
5260, 6, 8.3
5261, 6.1, 8.4
5262, 6, 8.5
5263, 6.1, 8.6
5264, 6, 8.7
5265, 6.1, 8.8
5266, 6, 8.9
5267, 6.1, 9
5268, 6, 9.1
5269, 6.1, 9.2
5270, 6, 9.3
5271, 6.1, 9.4
5272, 6, 9.5
5273, 6.1, 9.6
5274, 6, 9.7
5275, 6.1, 9.8
5276, 6, 9.9
5277, 5.8, 0.1
5278, 5.9, 0.2
5279, 5.8, 0.3
5280, 5.9, 0.4
5281, 5.8, 0.5
5282, 5.9, 0.6
5283, 5.8, 0.7
5284, 5.9, 0.8
5285, 5.8, 0.9
5286, 5.9, 1
5287, 5.8, 1.1
5288, 5.9, 1.2
5289, 5.8, 1.3
5290, 5.9, 1.4
5291, 5.8, 1.5
5292, 5.9, 1.6
5293, 5.8, 1.7
5294, 5.9, 1.8
5295, 5.8, 1.9
5296, 5.9, 2
5297, 5.8, 2.1
5298, 5.9, 2.2
5299, 5.8, 2.3
5300, 5.9, 2.4
5301, 5.8, 2.5
5302, 5.9, 2.6
5303, 5.8, 2.7
5304, 5.9, 2.8
5305, 5.8, 2.9
5306, 5.9, 3
5307, 5.8, 3.1
5308, 5.9, 3.2
5309, 5.8, 3.3
5310, 5.9, 3.4
5311, 5.8, 3.5
5312, 5.9, 3.6
5313, 5.8, 3.7
5314, 5.9, 3.8
5315, 5.8, 3.9
5316, 5.9, 4
5317, 5.8, 4.1
5318, 5.9, 4.2
5319, 5.8, 4.3
5320, 5.9, 4.4
5321, 5.8, 4.5
5322, 5.9, 4.6
5323, 5.8, 4.7
5324, 5.9, 4.8
5325, 5.8, 4.9
5326, 5.9, 5
5327, 5.8, 5.1
5328, 5.9, 5.2
5329, 5.8, 5.3
5330, 5.9, 5.4
5331, 5.8, 5.5
5332, 5.9, 5.6
5333, 5.8, 5.7
5334, 5.9, 5.8
5335, 5.8, 5.9
5336, 5.9, 6
5337, 5.8, 6.1
5338, 5.9, 6.2
5339, 5.8, 6.3
5340, 5.9, 6.4
5341, 5.8, 6.5
5342, 5.9, 6.6
5343, 5.8, 6.7
5344, 5.9, 6.8
5345, 5.8, 6.9
5346, 5.9, 7
5347, 5.8, 7.1
5348, 5.9, 7.2
5349, 5.8, 7.3
5350, 5.9, 7.4
5351, 5.8, 7.5
5352, 5.9, 7.6
5353, 5.8, 7.7
5354, 5.9, 7.8
5355, 5.8, 7.9
5356, 5.9, 8
5357, 5.8, 8.1
5358, 5.9, 8.2
5359, 5.8, 8.3
5360, 5.9, 8.4
5361, 5.8, 8.5
5362, 5.9, 8.6
5363, 5.8, 8.7
5364, 5.9, 8.8
5365, 5.8, 8.9
5366, 5.9, 9
5367, 5.8, 9.1
5368, 5.9, 9.2
5369, 5.8, 9.3
5370, 5.9, 9.4
5371, 5.8, 9.5
5372, 5.9, 9.6
5373, 5.8, 9.7
5374, 5.9, 9.8
5375, 5.8, 9.9
5376, 5.6, 0.1
5377, 5.7, 0.2
5378, 5.6, 0.3
5379, 5.7, 0.4
5380, 5.6, 0.5
5381, 5.7, 0.6
5382, 5.6, 0.7
5383, 5.7, 0.8
5384, 5.6, 0.9
5385, 5.7, 1
5386, 5.6, 1.1
5387, 5.7, 1.2
5388, 5.6, 1.3
5389, 5.7, 1.4
5390, 5.6, 1.5
5391, 5.7, 1.6
5392, 5.6, 1.7
5393, 5.7, 1.8
5394, 5.6, 1.9
5395, 5.7, 2
5396, 5.6, 2.1
5397, 5.7, 2.2
5398, 5.6, 2.3
5399, 5.7, 2.4
5400, 5.6, 2.5
5401, 5.7, 2.6
5402, 5.6, 2.7
5403, 5.7, 2.8
5404, 5.6, 2.9
5405, 5.7, 3
5406, 5.6, 3.1
5407, 5.7, 3.2
5408, 5.6, 3.3
5409, 5.7, 3.4
5410, 5.6, 3.5
5411, 5.7, 3.6
5412, 5.6, 3.7
5413, 5.7, 3.8
5414, 5.6, 3.9
5415, 5.7, 4
5416, 5.6, 4.1
5417, 5.7, 4.2
5418, 5.6, 4.3
5419, 5.7, 4.4
5420, 5.6, 4.5
5421, 5.7, 4.6
5422, 5.6, 4.7
5423, 5.7, 4.8
5424, 5.6, 4.9
5425, 5.7, 5
5426, 5.6, 5.1
5427, 5.7, 5.2
5428, 5.6, 5.3
5429, 5.7, 5.4
5430, 5.6, 5.5
5431, 5.7, 5.6
5432, 5.6, 5.7
5433, 5.7, 5.8
5434, 5.6, 5.9
5435, 5.7, 6
5436, 5.6, 6.1
5437, 5.7, 6.2
5438, 5.6, 6.3
5439, 5.7, 6.4
5440, 5.6, 6.5
5441, 5.7, 6.6
5442, 5.6, 6.7
5443, 5.7, 6.8
5444, 5.6, 6.9
5445, 5.7, 7
5446, 5.6, 7.1
5447, 5.7, 7.2
5448, 5.6, 7.3
5449, 5.7, 7.4
5450, 5.6, 7.5
5451, 5.7, 7.6
5452, 5.6, 7.7
5453, 5.7, 7.8
5454, 5.6, 7.9
5455, 5.7, 8
5456, 5.6, 8.1
5457, 5.7, 8.2
5458, 5.6, 8.3
5459, 5.7, 8.4
5460, 5.6, 8.5
5461, 5.7, 8.6
5462, 5.6, 8.7
5463, 5.7, 8.8
5464, 5.6, 8.9
5465, 5.7, 9
5466, 5.6, 9.1
5467, 5.7, 9.2
5468, 5.6, 9.3
5469, 5.7, 9.4
5470, 5.6, 9.5
5471, 5.7, 9.6
5472, 5.6, 9.7
5473, 5.7, 9.8
5474, 5.6, 9.9
5475, 5.4, 0.1
5476, 5.5, 0.2
5477, 5.4, 0.3
5478, 5.5, 0.4
5479, 5.4, 0.5
5480, 5.5, 0.6
5481, 5.4, 0.7
5482, 5.5, 0.8
5483, 5.4, 0.9
5484, 5.5, 1
5485, 5.4, 1.1
5486, 5.5, 1.2
5487, 5.4, 1.3
5488, 5.5, 1.4
5489, 5.4, 1.5
5490, 5.5, 1.6
5491, 5.4, 1.7
5492, 5.5, 1.8
5493, 5.4, 1.9
5494, 5.5, 2
5495, 5.4, 2.1
5496, 5.5, 2.2
5497, 5.4, 2.3
5498, 5.5, 2.4
5499, 5.4, 2.5
5500, 5.5, 2.6
5501, 5.4, 2.7
5502, 5.5, 2.8
5503, 5.4, 2.9
5504, 5.5, 3
5505, 5.4, 3.1
5506, 5.5, 3.2
5507, 5.4, 3.3
5508, 5.5, 3.4
5509, 5.4, 3.5
5510, 5.5, 3.6
5511, 5.4, 3.7
5512, 5.5, 3.8
5513, 5.4, 3.9
5514, 5.5, 4
5515, 5.4, 4.1
5516, 5.5, 4.2
5517, 5.4, 4.3
5518, 5.5, 4.4
5519, 5.4, 4.5
5520, 5.5, 4.6
5521, 5.4, 4.7
5522, 5.5, 4.8
5523, 5.4, 4.9
5524, 5.5, 5
5525, 5.4, 5.1
5526, 5.5, 5.2
5527, 5.4, 5.3
5528, 5.5, 5.4
5529, 5.4, 5.5
5530, 5.5, 5.6
5531, 5.4, 5.7
5532, 5.5, 5.8
5533, 5.4, 5.9
5534, 5.5, 6
5535, 5.4, 6.1
5536, 5.5, 6.2
5537, 5.4, 6.3
5538, 5.5, 6.4
5539, 5.4, 6.5
5540, 5.5, 6.6
5541, 5.4, 6.7
5542, 5.5, 6.8
5543, 5.4, 6.9
5544, 5.5, 7
5545, 5.4, 7.1
5546, 5.5, 7.2
5547, 5.4, 7.3
5548, 5.5, 7.4
5549, 5.4, 7.5
5550, 5.5, 7.6
5551, 5.4, 7.7
5552, 5.5, 7.8
5553, 5.4, 7.9
5554, 5.5, 8
5555, 5.4, 8.1
5556, 5.5, 8.2
5557, 5.4, 8.3
5558, 5.5, 8.4
5559, 5.4, 8.5
5560, 5.5, 8.6
5561, 5.4, 8.7
5562, 5.5, 8.8
5563, 5.4, 8.9
5564, 5.5, 9
5565, 5.4, 9.1
5566, 5.5, 9.2
5567, 5.4, 9.3
5568, 5.5, 9.4
5569, 5.4, 9.5
5570, 5.5, 9.6
5571, 5.4, 9.7
5572, 5.5, 9.8
5573, 5.4, 9.9
5574, 5.2, 0.1
5575, 5.3, 0.2
5576, 5.2, 0.3
5577, 5.3, 0.4
5578, 5.2, 0.5
5579, 5.3, 0.6
5580, 5.2, 0.7
5581, 5.3, 0.8
5582, 5.2, 0.9
5583, 5.3, 1
5584, 5.2, 1.1
5585, 5.3, 1.2
5586, 5.2, 1.3
5587, 5.3, 1.4
5588, 5.2, 1.5
5589, 5.3, 1.6
5590, 5.2, 1.7
5591, 5.3, 1.8
5592, 5.2, 1.9
5593, 5.3, 2
5594, 5.2, 2.1
5595, 5.3, 2.2
5596, 5.2, 2.3
5597, 5.3, 2.4
5598, 5.2, 2.5
5599, 5.3, 2.6
5600, 5.2, 2.7
5601, 5.3, 2.8
5602, 5.2, 2.9
5603, 5.3, 3
5604, 5.2, 3.1
5605, 5.3, 3.2
5606, 5.2, 3.3
5607, 5.3, 3.4
5608, 5.2, 3.5
5609, 5.3, 3.6
5610, 5.2, 3.7
5611, 5.3, 3.8
5612, 5.2, 3.9
5613, 5.3, 4
5614, 5.2, 4.1
5615, 5.3, 4.2
5616, 5.2, 4.3
5617, 5.3, 4.4
5618, 5.2, 4.5
5619, 5.3, 4.6
5620, 5.2, 4.7
5621, 5.3, 4.8
5622, 5.2, 4.9
5623, 5.3, 5
5624, 5.2, 5.1
5625, 5.3, 5.2
5626, 5.2, 5.3
5627, 5.3, 5.4
5628, 5.2, 5.5
5629, 5.3, 5.6
5630, 5.2, 5.7
5631, 5.3, 5.8
5632, 5.2, 5.9
5633, 5.3, 6
5634, 5.2, 6.1
5635, 5.3, 6.2
5636, 5.2, 6.3
5637, 5.3, 6.4
5638, 5.2, 6.5
5639, 5.3, 6.6
5640, 5.2, 6.7
5641, 5.3, 6.8
5642, 5.2, 6.9
5643, 5.3, 7
5644, 5.2, 7.1
5645, 5.3, 7.2
5646, 5.2, 7.3
5647, 5.3, 7.4
5648, 5.2, 7.5
5649, 5.3, 7.6
5650, 5.2, 7.7
5651, 5.3, 7.8
5652, 5.2, 7.9
5653, 5.3, 8
5654, 5.2, 8.1
5655, 5.3, 8.2
5656, 5.2, 8.3
5657, 5.3, 8.4
5658, 5.2, 8.5
5659, 5.3, 8.6
5660, 5.2, 8.7
5661, 5.3, 8.8
5662, 5.2, 8.9
5663, 5.3, 9
5664, 5.2, 9.1
5665, 5.3, 9.2
5666, 5.2, 9.3
5667, 5.3, 9.4
5668, 5.2, 9.5
5669, 5.3, 9.6
5670, 5.2, 9.7
5671, 5.3, 9.8
5672, 5.2, 9.9
5673, 5, 0.1
5674, 5.1, 0.2
5675, 5, 0.3
5676, 5.1, 0.4
5677, 5, 0.5
5678, 5.1, 0.6
5679, 5, 0.7
5680, 5.1, 0.8
5681, 5, 0.9
5682, 5.1, 1
5683, 5, 1.1
5684, 5.1, 1.2
5685, 5, 1.3
5686, 5.1, 1.4
5687, 5, 1.5
5688, 5.1, 1.6
5689, 5, 1.7
5690, 5.1, 1.8
5691, 5, 1.9
5692, 5.1, 2
5693, 5, 2.1
5694, 5.1, 2.2
5695, 5, 2.3
5696, 5.1, 2.4
5697, 5, 2.5
5698, 5.1, 2.6
5699, 5, 2.7
5700, 5.1, 2.8
5701, 5, 2.9
5702, 5.1, 3
5703, 5, 3.1
5704, 5.1, 3.2
5705, 5, 3.3
5706, 5.1, 3.4
5707, 5, 3.5
5708, 5.1, 3.6
5709, 5, 3.7
5710, 5.1, 3.8
5711, 5, 3.9
5712, 5.1, 4
5713, 5, 4.1
5714, 5.1, 4.2
5715, 5, 4.3
5716, 5.1, 4.4
5717, 5, 4.5
5718, 5.1, 4.6
5719, 5, 4.7
5720, 5.1, 4.8
5721, 5, 4.9
5722, 5.1, 5
5723, 5, 5.1
5724, 5.1, 5.2
5725, 5, 5.3
5726, 5.1, 5.4
5727, 5, 5.5
5728, 5.1, 5.6
5729, 5, 5.7
5730, 5.1, 5.8
5731, 5, 5.9
5732, 5.1, 6
5733, 5, 6.1
5734, 5.1, 6.2
5735, 5, 6.3
5736, 5.1, 6.4
5737, 5, 6.5
5738, 5.1, 6.6
5739, 5, 6.7
5740, 5.1, 6.8
5741, 5, 6.9
5742, 5.1, 7
5743, 5, 7.1
5744, 5.1, 7.2
5745, 5, 7.3
5746, 5.1, 7.4
5747, 5, 7.5
5748, 5.1, 7.6
5749, 5, 7.7
5750, 5.1, 7.8
5751, 5, 7.9
5752, 5.1, 8
5753, 5, 8.1
5754, 5.1, 8.2
5755, 5, 8.3
5756, 5.1, 8.4
5757, 5, 8.5
5758, 5.1, 8.6
5759, 5, 8.7
5760, 5.1, 8.8
5761, 5, 8.9
5762, 5.1, 9
5763, 5, 9.1
5764, 5.1, 9.2
5765, 5, 9.3
5766, 5.1, 9.4
5767, 5, 9.5
5768, 5.1, 9.6
5769, 5, 9.7
5770, 5.1, 9.8
5771, 5, 9.9
5772, 4.8, 0.1
5773, 4.9, 0.2
5774, 4.8, 0.3
5775, 4.9, 0.4
5776, 4.8, 0.5
5777, 4.9, 0.6
5778, 4.8, 0.7
5779, 4.9, 0.8
5780, 4.8, 0.9
5781, 4.9, 1
5782, 4.8, 1.1
5783, 4.9, 1.2
5784, 4.8, 1.3
5785, 4.9, 1.4
5786, 4.8, 1.5
5787, 4.9, 1.6
5788, 4.8, 1.7
5789, 4.9, 1.8
5790, 4.8, 1.9
5791, 4.9, 2
5792, 4.8, 2.1
5793, 4.9, 2.2
5794, 4.8, 2.3
5795, 4.9, 2.4
5796, 4.8, 2.5
5797, 4.9, 2.6
5798, 4.8, 2.7
5799, 4.9, 2.8
5800, 4.8, 2.9
5801, 4.9, 3
5802, 4.8, 3.1
5803, 4.9, 3.2
5804, 4.8, 3.3
5805, 4.9, 3.4
5806, 4.8, 3.5
5807, 4.9, 3.6
5808, 4.8, 3.7
5809, 4.9, 3.8
5810, 4.8, 3.9
5811, 4.9, 4
5812, 4.8, 4.1
5813, 4.9, 4.2
5814, 4.8, 4.3
5815, 4.9, 4.4
5816, 4.8, 4.5
5817, 4.9, 4.6
5818, 4.8, 4.7
5819, 4.9, 4.8
5820, 4.8, 4.9
5821, 4.9, 5
5822, 4.8, 5.1
5823, 4.9, 5.2
5824, 4.8, 5.3
5825, 4.9, 5.4
5826, 4.8, 5.5
5827, 4.9, 5.6
5828, 4.8, 5.7
5829, 4.9, 5.8
5830, 4.8, 5.9
5831, 4.9, 6
5832, 4.8, 6.1
5833, 4.9, 6.2
5834, 4.8, 6.3
5835, 4.9, 6.4
5836, 4.8, 6.5
5837, 4.9, 6.6
5838, 4.8, 6.7
5839, 4.9, 6.8
5840, 4.8, 6.9
5841, 4.9, 7
5842, 4.8, 7.1
5843, 4.9, 7.2
5844, 4.8, 7.3
5845, 4.9, 7.4
5846, 4.8, 7.5
5847, 4.9, 7.6
5848, 4.8, 7.7
5849, 4.9, 7.8
5850, 4.8, 7.9
5851, 4.9, 8
5852, 4.8, 8.1
5853, 4.9, 8.2
5854, 4.8, 8.3
5855, 4.9, 8.4
5856, 4.8, 8.5
5857, 4.9, 8.6
5858, 4.8, 8.7
5859, 4.9, 8.8
5860, 4.8, 8.9
5861, 4.9, 9
5862, 4.8, 9.1
5863, 4.9, 9.2
5864, 4.8, 9.3
5865, 4.9, 9.4
5866, 4.8, 9.5
5867, 4.9, 9.6
5868, 4.8, 9.7
5869, 4.9, 9.8
5870, 4.8, 9.9
5871, 4.6, 0.1
5872, 4.7, 0.2
5873, 4.6, 0.3
5874, 4.7, 0.4
5875, 4.6, 0.5
5876, 4.7, 0.6
5877, 4.6, 0.7
5878, 4.7, 0.8
5879, 4.6, 0.9
5880, 4.7, 1
5881, 4.6, 1.1
5882, 4.7, 1.2
5883, 4.6, 1.3
5884, 4.7, 1.4
5885, 4.6, 1.5
5886, 4.7, 1.6
5887, 4.6, 1.7
5888, 4.7, 1.8
5889, 4.6, 1.9
5890, 4.7, 2
5891, 4.6, 2.1
5892, 4.7, 2.2
5893, 4.6, 2.3
5894, 4.7, 2.4
5895, 4.6, 2.5
5896, 4.7, 2.6
5897, 4.6, 2.7
5898, 4.7, 2.8
5899, 4.6, 2.9
5900, 4.7, 3
5901, 4.6, 3.1
5902, 4.7, 3.2
5903, 4.6, 3.3
5904, 4.7, 3.4
5905, 4.6, 3.5
5906, 4.7, 3.6
5907, 4.6, 3.7
5908, 4.7, 3.8
5909, 4.6, 3.9
5910, 4.7, 4
5911, 4.6, 4.1
5912, 4.7, 4.2
5913, 4.6, 4.3
5914, 4.7, 4.4
5915, 4.6, 4.5
5916, 4.7, 4.6
5917, 4.6, 4.7
5918, 4.7, 4.8
5919, 4.6, 4.9
5920, 4.7, 5
5921, 4.6, 5.1
5922, 4.7, 5.2
5923, 4.6, 5.3
5924, 4.7, 5.4
5925, 4.6, 5.5
5926, 4.7, 5.6
5927, 4.6, 5.7
5928, 4.7, 5.8
5929, 4.6, 5.9
5930, 4.7, 6
5931, 4.6, 6.1
5932, 4.7, 6.2
5933, 4.6, 6.3
5934, 4.7, 6.4
5935, 4.6, 6.5
5936, 4.7, 6.6
5937, 4.6, 6.7
5938, 4.7, 6.8
5939, 4.6, 6.9
5940, 4.7, 7
5941, 4.6, 7.1
5942, 4.7, 7.2
5943, 4.6, 7.3
5944, 4.7, 7.4
5945, 4.6, 7.5
5946, 4.7, 7.6
5947, 4.6, 7.7
5948, 4.7, 7.8
5949, 4.6, 7.9
5950, 4.7, 8
5951, 4.6, 8.1
5952, 4.7, 8.2
5953, 4.6, 8.3
5954, 4.7, 8.4
5955, 4.6, 8.5
5956, 4.7, 8.6
5957, 4.6, 8.7
5958, 4.7, 8.8
5959, 4.6, 8.9
5960, 4.7, 9
5961, 4.6, 9.1
5962, 4.7, 9.2
5963, 4.6, 9.3
5964, 4.7, 9.4
5965, 4.6, 9.5
5966, 4.7, 9.6
5967, 4.6, 9.7
5968, 4.7, 9.8
5969, 4.6, 9.9
5970, 4.4, 0.1
5971, 4.5, 0.2
5972, 4.4, 0.3
5973, 4.5, 0.4
5974, 4.4, 0.5
5975, 4.5, 0.6
5976, 4.4, 0.7
5977, 4.5, 0.8
5978, 4.4, 0.9
5979, 4.5, 1
5980, 4.4, 1.1
5981, 4.5, 1.2
5982, 4.4, 1.3
5983, 4.5, 1.4
5984, 4.4, 1.5
5985, 4.5, 1.6
5986, 4.4, 1.7
5987, 4.5, 1.8
5988, 4.4, 1.9
5989, 4.5, 2
5990, 4.4, 2.1
5991, 4.5, 2.2
5992, 4.4, 2.3
5993, 4.5, 2.4
5994, 4.4, 2.5
5995, 4.5, 2.6
5996, 4.4, 2.7
5997, 4.5, 2.8
5998, 4.4, 2.9
5999, 4.5, 3
6000, 4.4, 3.1
6001, 4.5, 3.2
6002, 4.4, 3.3
6003, 4.5, 3.4
6004, 4.4, 3.5
6005, 4.5, 3.6
6006, 4.4, 3.7
6007, 4.5, 3.8
6008, 4.4, 3.9
6009, 4.5, 4
6010, 4.4, 4.1
6011, 4.5, 4.2
6012, 4.4, 4.3
6013, 4.5, 4.4
6014, 4.4, 4.5
6015, 4.5, 4.6
6016, 4.4, 4.7
6017, 4.5, 4.8
6018, 4.4, 4.9
6019, 4.5, 5
6020, 4.4, 5.1
6021, 4.5, 5.2
6022, 4.4, 5.3
6023, 4.5, 5.4
6024, 4.4, 5.5
6025, 4.5, 5.6
6026, 4.4, 5.7
6027, 4.5, 5.8
6028, 4.4, 5.9
6029, 4.5, 6
6030, 4.4, 6.1
6031, 4.5, 6.2
6032, 4.4, 6.3
6033, 4.5, 6.4
6034, 4.4, 6.5
6035, 4.5, 6.6
6036, 4.4, 6.7
6037, 4.5, 6.8
6038, 4.4, 6.9
6039, 4.5, 7
6040, 4.4, 7.1
6041, 4.5, 7.2
6042, 4.4, 7.3
6043, 4.5, 7.4
6044, 4.4, 7.5
6045, 4.5, 7.6
6046, 4.4, 7.7
6047, 4.5, 7.8
6048, 4.4, 7.9
6049, 4.5, 8
6050, 4.4, 8.1
6051, 4.5, 8.2
6052, 4.4, 8.3
6053, 4.5, 8.4
6054, 4.4, 8.5
6055, 4.5, 8.6
6056, 4.4, 8.7
6057, 4.5, 8.8
6058, 4.4, 8.9
6059, 4.5, 9
6060, 4.4, 9.1
6061, 4.5, 9.2
6062, 4.4, 9.3
6063, 4.5, 9.4
6064, 4.4, 9.5
6065, 4.5, 9.6
6066, 4.4, 9.7
6067, 4.5, 9.8
6068, 4.4, 9.9
6069, 4.2, 0.1
6070, 4.3, 0.2
6071, 4.2, 0.3
6072, 4.3, 0.4
6073, 4.2, 0.5
6074, 4.3, 0.6
6075, 4.2, 0.7
6076, 4.3, 0.8
6077, 4.2, 0.9
6078, 4.3, 1
6079, 4.2, 1.1
6080, 4.3, 1.2
6081, 4.2, 1.3
6082, 4.3, 1.4
6083, 4.2, 1.5
6084, 4.3, 1.6
6085, 4.2, 1.7
6086, 4.3, 1.8
6087, 4.2, 1.9
6088, 4.3, 2
6089, 4.2, 2.1
6090, 4.3, 2.2
6091, 4.2, 2.3
6092, 4.3, 2.4
6093, 4.2, 2.5
6094, 4.3, 2.6
6095, 4.2, 2.7
6096, 4.3, 2.8
6097, 4.2, 2.9
6098, 4.3, 3
6099, 4.2, 3.1
6100, 4.3, 3.2
6101, 4.2, 3.3
6102, 4.3, 3.4
6103, 4.2, 3.5
6104, 4.3, 3.6
6105, 4.2, 3.7
6106, 4.3, 3.8
6107, 4.2, 3.9
6108, 4.3, 4
6109, 4.2, 4.1
6110, 4.3, 4.2
6111, 4.2, 4.3
6112, 4.3, 4.4
6113, 4.2, 4.5
6114, 4.3, 4.6
6115, 4.2, 4.7
6116, 4.3, 4.8
6117, 4.2, 4.9
6118, 4.3, 5
6119, 4.2, 5.1
6120, 4.3, 5.2
6121, 4.2, 5.3
6122, 4.3, 5.4
6123, 4.2, 5.5
6124, 4.3, 5.6
6125, 4.2, 5.7
6126, 4.3, 5.8
6127, 4.2, 5.9
6128, 4.3, 6
6129, 4.2, 6.1
6130, 4.3, 6.2
6131, 4.2, 6.3
6132, 4.3, 6.4
6133, 4.2, 6.5
6134, 4.3, 6.6
6135, 4.2, 6.7
6136, 4.3, 6.8
6137, 4.2, 6.9
6138, 4.3, 7
6139, 4.2, 7.1
6140, 4.3, 7.2
6141, 4.2, 7.3
6142, 4.3, 7.4
6143, 4.2, 7.5
6144, 4.3, 7.6
6145, 4.2, 7.7
6146, 4.3, 7.8
6147, 4.2, 7.9
6148, 4.3, 8
6149, 4.2, 8.1
6150, 4.3, 8.2
6151, 4.2, 8.3
6152, 4.3, 8.4
6153, 4.2, 8.5
6154, 4.3, 8.6
6155, 4.2, 8.7
6156, 4.3, 8.8
6157, 4.2, 8.9
6158, 4.3, 9
6159, 4.2, 9.1
6160, 4.3, 9.2
6161, 4.2, 9.3
6162, 4.3, 9.4
6163, 4.2, 9.5
6164, 4.3, 9.6
6165, 4.2, 9.7
6166, 4.3, 9.8
6167, 4.2, 9.9
6168, 4, 0.1
6169, 4.1, 0.2
6170, 4, 0.3
6171, 4.1, 0.4
6172, 4, 0.5
6173, 4.1, 0.6
6174, 4, 0.7
6175, 4.1, 0.8
6176, 4, 0.9
6177, 4.1, 1
6178, 4, 1.1
6179, 4.1, 1.2
6180, 4, 1.3
6181, 4.1, 1.4
6182, 4, 1.5
6183, 4.1, 1.6
6184, 4, 1.7
6185, 4.1, 1.8
6186, 4, 1.9
6187, 4.1, 2
6188, 4, 2.1
6189, 4.1, 2.2
6190, 4, 2.3
6191, 4.1, 2.4
6192, 4, 2.5
6193, 4.1, 2.6
6194, 4, 2.7
6195, 4.1, 2.8
6196, 4, 2.9
6197, 4.1, 3
6198, 4, 3.1
6199, 4.1, 3.2
6200, 4, 3.3
6201, 4.1, 3.4
6202, 4, 3.5
6203, 4.1, 3.6
6204, 4, 3.7
6205, 4.1, 3.8
6206, 4, 3.9
6207, 4.1, 4
6208, 4, 4.1
6209, 4.1, 4.2
6210, 4, 4.3
6211, 4.1, 4.4
6212, 4, 4.5
6213, 4.1, 4.6
6214, 4, 4.7
6215, 4.1, 4.8
6216, 4, 4.9
6217, 4.1, 5
6218, 4, 5.1
6219, 4.1, 5.2
6220, 4, 5.3
6221, 4.1, 5.4
6222, 4, 5.5
6223, 4.1, 5.6
6224, 4, 5.7
6225, 4.1, 5.8
6226, 4, 5.9
6227, 4.1, 6
6228, 4, 6.1
6229, 4.1, 6.2
6230, 4, 6.3
6231, 4.1, 6.4
6232, 4, 6.5
6233, 4.1, 6.6
6234, 4, 6.7
6235, 4.1, 6.8
6236, 4, 6.9
6237, 4.1, 7
6238, 4, 7.1
6239, 4.1, 7.2
6240, 4, 7.3
6241, 4.1, 7.4
6242, 4, 7.5
6243, 4.1, 7.6
6244, 4, 7.7
6245, 4.1, 7.8
6246, 4, 7.9
6247, 4.1, 8
6248, 4, 8.1
6249, 4.1, 8.2
6250, 4, 8.3
6251, 4.1, 8.4
6252, 4, 8.5
6253, 4.1, 8.6
6254, 4, 8.7
6255, 4.1, 8.8
6256, 4, 8.9
6257, 4.1, 9
6258, 4, 9.1
6259, 4.1, 9.2
6260, 4, 9.3
6261, 4.1, 9.4
6262, 4, 9.5
6263, 4.1, 9.6
6264, 4, 9.7
6265, 4.1, 9.8
6266, 4, 9.9
6267, 3.8, 0.1
6268, 3.9, 0.2
6269, 3.8, 0.3
6270, 3.9, 0.4
6271, 3.8, 0.5
6272, 3.9, 0.6
6273, 3.8, 0.7
6274, 3.9, 0.8
6275, 3.8, 0.9
6276, 3.9, 1
6277, 3.8, 1.1
6278, 3.9, 1.2
6279, 3.8, 1.3
6280, 3.9, 1.4
6281, 3.8, 1.5
6282, 3.9, 1.6
6283, 3.8, 1.7
6284, 3.9, 1.8
6285, 3.8, 1.9
6286, 3.9, 2
6287, 3.8, 2.1
6288, 3.9, 2.2
6289, 3.8, 2.3
6290, 3.9, 2.4
6291, 3.8, 2.5
6292, 3.9, 2.6
6293, 3.8, 2.7
6294, 3.9, 2.8
6295, 3.8, 2.9
6296, 3.9, 3
6297, 3.8, 3.1
6298, 3.9, 3.2
6299, 3.8, 3.3
6300, 3.9, 3.4
6301, 3.8, 3.5
6302, 3.9, 3.6
6303, 3.8, 3.7
6304, 3.9, 3.8
6305, 3.8, 3.9
6306, 3.9, 4
6307, 3.8, 4.1
6308, 3.9, 4.2
6309, 3.8, 4.3
6310, 3.9, 4.4
6311, 3.8, 4.5
6312, 3.9, 4.6
6313, 3.8, 4.7
6314, 3.9, 4.8
6315, 3.8, 4.9
6316, 3.9, 5
6317, 3.8, 5.1
6318, 3.9, 5.2
6319, 3.8, 5.3
6320, 3.9, 5.4
6321, 3.8, 5.5
6322, 3.9, 5.6
6323, 3.8, 5.7
6324, 3.9, 5.8
6325, 3.8, 5.9
6326, 3.9, 6
6327, 3.8, 6.1
6328, 3.9, 6.2
6329, 3.8, 6.3
6330, 3.9, 6.4
6331, 3.8, 6.5
6332, 3.9, 6.6
6333, 3.8, 6.7
6334, 3.9, 6.8
6335, 3.8, 6.9
6336, 3.9, 7
6337, 3.8, 7.1
6338, 3.9, 7.2
6339, 3.8, 7.3
6340, 3.9, 7.4
6341, 3.8, 7.5
6342, 3.9, 7.6
6343, 3.8, 7.7
6344, 3.9, 7.8
6345, 3.8, 7.9
6346, 3.9, 8
6347, 3.8, 8.1
6348, 3.9, 8.2
6349, 3.8, 8.3
6350, 3.9, 8.4
6351, 3.8, 8.5
6352, 3.9, 8.6
6353, 3.8, 8.7
6354, 3.9, 8.8
6355, 3.8, 8.9
6356, 3.9, 9
6357, 3.8, 9.1
6358, 3.9, 9.2
6359, 3.8, 9.3
6360, 3.9, 9.4
6361, 3.8, 9.5
6362, 3.9, 9.6
6363, 3.8, 9.7
6364, 3.9, 9.8
6365, 3.8, 9.9
6366, 3.6, 0.1
6367, 3.7, 0.2
6368, 3.6, 0.3
6369, 3.7, 0.4
6370, 3.6, 0.5
6371, 3.7, 0.6
6372, 3.6, 0.7
6373, 3.7, 0.8
6374, 3.6, 0.9
6375, 3.7, 1
6376, 3.6, 1.1
6377, 3.7, 1.2
6378, 3.6, 1.3
6379, 3.7, 1.4
6380, 3.6, 1.5
6381, 3.7, 1.6
6382, 3.6, 1.7
6383, 3.7, 1.8
6384, 3.6, 1.9
6385, 3.7, 2
6386, 3.6, 2.1
6387, 3.7, 2.2
6388, 3.6, 2.3
6389, 3.7, 2.4
6390, 3.6, 2.5
6391, 3.7, 2.6
6392, 3.6, 2.7
6393, 3.7, 2.8
6394, 3.6, 2.9
6395, 3.7, 3
6396, 3.6, 3.1
6397, 3.7, 3.2
6398, 3.6, 3.3
6399, 3.7, 3.4
6400, 3.6, 3.5
6401, 3.7, 3.6
6402, 3.6, 3.7
6403, 3.7, 3.8
6404, 3.6, 3.9
6405, 3.7, 4
6406, 3.6, 4.1
6407, 3.7, 4.2
6408, 3.6, 4.3
6409, 3.7, 4.4
6410, 3.6, 4.5
6411, 3.7, 4.6
6412, 3.6, 4.7
6413, 3.7, 4.8
6414, 3.6, 4.9
6415, 3.7, 5
6416, 3.6, 5.1
6417, 3.7, 5.2
6418, 3.6, 5.3
6419, 3.7, 5.4
6420, 3.6, 5.5
6421, 3.7, 5.6
6422, 3.6, 5.7
6423, 3.7, 5.8
6424, 3.6, 5.9
6425, 3.7, 6
6426, 3.6, 6.1
6427, 3.7, 6.2
6428, 3.6, 6.3
6429, 3.7, 6.4
6430, 3.6, 6.5
6431, 3.7, 6.6
6432, 3.6, 6.7
6433, 3.7, 6.8
6434, 3.6, 6.9
6435, 3.7, 7
6436, 3.6, 7.1
6437, 3.7, 7.2
6438, 3.6, 7.3
6439, 3.7, 7.4
6440, 3.6, 7.5
6441, 3.7, 7.6
6442, 3.6, 7.7
6443, 3.7, 7.8
6444, 3.6, 7.9
6445, 3.7, 8
6446, 3.6, 8.1
6447, 3.7, 8.2
6448, 3.6, 8.3
6449, 3.7, 8.4
6450, 3.6, 8.5
6451, 3.7, 8.6
6452, 3.6, 8.7
6453, 3.7, 8.8
6454, 3.6, 8.9
6455, 3.7, 9
6456, 3.6, 9.1
6457, 3.7, 9.2
6458, 3.6, 9.3
6459, 3.7, 9.4
6460, 3.6, 9.5
6461, 3.7, 9.6
6462, 3.6, 9.7
6463, 3.7, 9.8
6464, 3.6, 9.9
6465, 3.4, 0.1
6466, 3.5, 0.2
6467, 3.4, 0.3
6468, 3.5, 0.4
6469, 3.4, 0.5
6470, 3.5, 0.6
6471, 3.4, 0.7
6472, 3.5, 0.8
6473, 3.4, 0.9
6474, 3.5, 1
6475, 3.4, 1.1
6476, 3.5, 1.2
6477, 3.4, 1.3
6478, 3.5, 1.4
6479, 3.4, 1.5
6480, 3.5, 1.6
6481, 3.4, 1.7
6482, 3.5, 1.8
6483, 3.4, 1.9
6484, 3.5, 2
6485, 3.4, 2.1
6486, 3.5, 2.2
6487, 3.4, 2.3
6488, 3.5, 2.4
6489, 3.4, 2.5
6490, 3.5, 2.6
6491, 3.4, 2.7
6492, 3.5, 2.8
6493, 3.4, 2.9
6494, 3.5, 3
6495, 3.4, 3.1
6496, 3.5, 3.2
6497, 3.4, 3.3
6498, 3.5, 3.4
6499, 3.4, 3.5
6500, 3.5, 3.6
6501, 3.4, 3.7
6502, 3.5, 3.8
6503, 3.4, 3.9
6504, 3.5, 4
6505, 3.4, 4.1
6506, 3.5, 4.2
6507, 3.4, 4.3
6508, 3.5, 4.4
6509, 3.4, 4.5
6510, 3.5, 4.6
6511, 3.4, 4.7
6512, 3.5, 4.8
6513, 3.4, 4.9
6514, 3.5, 5
6515, 3.4, 5.1
6516, 3.5, 5.2
6517, 3.4, 5.3
6518, 3.5, 5.4
6519, 3.4, 5.5
6520, 3.5, 5.6
6521, 3.4, 5.7
6522, 3.5, 5.8
6523, 3.4, 5.9
6524, 3.5, 6
6525, 3.4, 6.1
6526, 3.5, 6.2
6527, 3.4, 6.3
6528, 3.5, 6.4
6529, 3.4, 6.5
6530, 3.5, 6.6
6531, 3.4, 6.7
6532, 3.5, 6.8
6533, 3.4, 6.9
6534, 3.5, 7
6535, 3.4, 7.1
6536, 3.5, 7.2
6537, 3.4, 7.3
6538, 3.5, 7.4
6539, 3.4, 7.5
6540, 3.5, 7.6
6541, 3.4, 7.7
6542, 3.5, 7.8
6543, 3.4, 7.9
6544, 3.5, 8
6545, 3.4, 8.1
6546, 3.5, 8.2
6547, 3.4, 8.3
6548, 3.5, 8.4
6549, 3.4, 8.5
6550, 3.5, 8.6
6551, 3.4, 8.7
6552, 3.5, 8.8
6553, 3.4, 8.9
6554, 3.5, 9
6555, 3.4, 9.1
6556, 3.5, 9.2
6557, 3.4, 9.3
6558, 3.5, 9.4
6559, 3.4, 9.5
6560, 3.5, 9.6
6561, 3.4, 9.7
6562, 3.5, 9.8
6563, 3.4, 9.9
6564, 3.2, 0.1
6565, 3.3, 0.2
6566, 3.2, 0.3
6567, 3.3, 0.4
6568, 3.2, 0.5
6569, 3.3, 0.6
6570, 3.2, 0.7
6571, 3.3, 0.8
6572, 3.2, 0.9
6573, 3.3, 1
6574, 3.2, 1.1
6575, 3.3, 1.2
6576, 3.2, 1.3
6577, 3.3, 1.4
6578, 3.2, 1.5
6579, 3.3, 1.6
6580, 3.2, 1.7
6581, 3.3, 1.8
6582, 3.2, 1.9
6583, 3.3, 2
6584, 3.2, 2.1
6585, 3.3, 2.2
6586, 3.2, 2.3
6587, 3.3, 2.4
6588, 3.2, 2.5
6589, 3.3, 2.6
6590, 3.2, 2.7
6591, 3.3, 2.8
6592, 3.2, 2.9
6593, 3.3, 3
6594, 3.2, 3.1
6595, 3.3, 3.2
6596, 3.2, 3.3
6597, 3.3, 3.4
6598, 3.2, 3.5
6599, 3.3, 3.6
6600, 3.2, 3.7
6601, 3.3, 3.8
6602, 3.2, 3.9
6603, 3.3, 4
6604, 3.2, 4.1
6605, 3.3, 4.2
6606, 3.2, 4.3
6607, 3.3, 4.4
6608, 3.2, 4.5
6609, 3.3, 4.6
6610, 3.2, 4.7
6611, 3.3, 4.8
6612, 3.2, 4.9
6613, 3.3, 5
6614, 3.2, 5.1
6615, 3.3, 5.2
6616, 3.2, 5.3
6617, 3.3, 5.4
6618, 3.2, 5.5
6619, 3.3, 5.6
6620, 3.2, 5.7
6621, 3.3, 5.8
6622, 3.2, 5.9
6623, 3.3, 6
6624, 3.2, 6.1
6625, 3.3, 6.2
6626, 3.2, 6.3
6627, 3.3, 6.4
6628, 3.2, 6.5
6629, 3.3, 6.6
6630, 3.2, 6.7
6631, 3.3, 6.8
6632, 3.2, 6.9
6633, 3.3, 7
6634, 3.2, 7.1
6635, 3.3, 7.2
6636, 3.2, 7.3
6637, 3.3, 7.4
6638, 3.2, 7.5
6639, 3.3, 7.6
6640, 3.2, 7.7
6641, 3.3, 7.8
6642, 3.2, 7.9
6643, 3.3, 8
6644, 3.2, 8.1
6645, 3.3, 8.2
6646, 3.2, 8.3
6647, 3.3, 8.4
6648, 3.2, 8.5
6649, 3.3, 8.6
6650, 3.2, 8.7
6651, 3.3, 8.8
6652, 3.2, 8.9
6653, 3.3, 9
6654, 3.2, 9.1
6655, 3.3, 9.2
6656, 3.2, 9.3
6657, 3.3, 9.4
6658, 3.2, 9.5
6659, 3.3, 9.6
6660, 3.2, 9.7
6661, 3.3, 9.8
6662, 3.2, 9.9
6663, 3, 0.1
6664, 3.1, 0.2
6665, 3, 0.3
6666, 3.1, 0.4
6667, 3, 0.5
6668, 3.1, 0.6
6669, 3, 0.7
6670, 3.1, 0.8
6671, 3, 0.9
6672, 3.1, 1
6673, 3, 1.1
6674, 3.1, 1.2
6675, 3, 1.3
6676, 3.1, 1.4
6677, 3, 1.5
6678, 3.1, 1.6
6679, 3, 1.7
6680, 3.1, 1.8
6681, 3, 1.9
6682, 3.1, 2
6683, 3, 2.1
6684, 3.1, 2.2
6685, 3, 2.3
6686, 3.1, 2.4
6687, 3, 2.5
6688, 3.1, 2.6
6689, 3, 2.7
6690, 3.1, 2.8
6691, 3, 2.9
6692, 3.1, 3
6693, 3, 3.1
6694, 3.1, 3.2
6695, 3, 3.3
6696, 3.1, 3.4
6697, 3, 3.5
6698, 3.1, 3.6
6699, 3, 3.7
6700, 3.1, 3.8
6701, 3, 3.9
6702, 3.1, 4
6703, 3, 4.1
6704, 3.1, 4.2
6705, 3, 4.3
6706, 3.1, 4.4
6707, 3, 4.5
6708, 3.1, 4.6
6709, 3, 4.7
6710, 3.1, 4.8
6711, 3, 4.9
6712, 3.1, 5
6713, 3, 5.1
6714, 3.1, 5.2
6715, 3, 5.3
6716, 3.1, 5.4
6717, 3, 5.5
6718, 3.1, 5.6
6719, 3, 5.7
6720, 3.1, 5.8
6721, 3, 5.9
6722, 3.1, 6
6723, 3, 6.1
6724, 3.1, 6.2
6725, 3, 6.3
6726, 3.1, 6.4
6727, 3, 6.5
6728, 3.1, 6.6
6729, 3, 6.7
6730, 3.1, 6.8
6731, 3, 6.9
6732, 3.1, 7
6733, 3, 7.1
6734, 3.1, 7.2
6735, 3, 7.3
6736, 3.1, 7.4
6737, 3, 7.5
6738, 3.1, 7.6
6739, 3, 7.7
6740, 3.1, 7.8
6741, 3, 7.9
6742, 3.1, 8
6743, 3, 8.1
6744, 3.1, 8.2
6745, 3, 8.3
6746, 3.1, 8.4
6747, 3, 8.5
6748, 3.1, 8.6
6749, 3, 8.7
6750, 3.1, 8.8
6751, 3, 8.9
6752, 3.1, 9
6753, 3, 9.1
6754, 3.1, 9.2
6755, 3, 9.3
6756, 3.1, 9.4
6757, 3, 9.5
6758, 3.1, 9.6
6759, 3, 9.7
6760, 3.1, 9.8
6761, 3, 9.9
6762, 2.8, 0.1
6763, 2.9, 0.2
6764, 2.8, 0.3
6765, 2.9, 0.4
6766, 2.8, 0.5
6767, 2.9, 0.6
6768, 2.8, 0.7
6769, 2.9, 0.8
6770, 2.8, 0.9
6771, 2.9, 1
6772, 2.8, 1.1
6773, 2.9, 1.2
6774, 2.8, 1.3
6775, 2.9, 1.4
6776, 2.8, 1.5
6777, 2.9, 1.6
6778, 2.8, 1.7
6779, 2.9, 1.8
6780, 2.8, 1.9
6781, 2.9, 2
6782, 2.8, 2.1
6783, 2.9, 2.2
6784, 2.8, 2.3
6785, 2.9, 2.4
6786, 2.8, 2.5
6787, 2.9, 2.6
6788, 2.8, 2.7
6789, 2.9, 2.8
6790, 2.8, 2.9
6791, 2.9, 3
6792, 2.8, 3.1
6793, 2.9, 3.2
6794, 2.8, 3.3
6795, 2.9, 3.4
6796, 2.8, 3.5
6797, 2.9, 3.6
6798, 2.8, 3.7
6799, 2.9, 3.8
6800, 2.8, 3.9
6801, 2.9, 4
6802, 2.8, 4.1
6803, 2.9, 4.2
6804, 2.8, 4.3
6805, 2.9, 4.4
6806, 2.8, 4.5
6807, 2.9, 4.6
6808, 2.8, 4.7
6809, 2.9, 4.8
6810, 2.8, 4.9
6811, 2.9, 5
6812, 2.8, 5.1
6813, 2.9, 5.2
6814, 2.8, 5.3
6815, 2.9, 5.4
6816, 2.8, 5.5
6817, 2.9, 5.6
6818, 2.8, 5.7
6819, 2.9, 5.8
6820, 2.8, 5.9
6821, 2.9, 6
6822, 2.8, 6.1
6823, 2.9, 6.2
6824, 2.8, 6.3
6825, 2.9, 6.4
6826, 2.8, 6.5
6827, 2.9, 6.6
6828, 2.8, 6.7
6829, 2.9, 6.8
6830, 2.8, 6.9
6831, 2.9, 7
6832, 2.8, 7.1
6833, 2.9, 7.2
6834, 2.8, 7.3
6835, 2.9, 7.4
6836, 2.8, 7.5
6837, 2.9, 7.6
6838, 2.8, 7.7
6839, 2.9, 7.8
6840, 2.8, 7.9
6841, 2.9, 8
6842, 2.8, 8.1
6843, 2.9, 8.2
6844, 2.8, 8.3
6845, 2.9, 8.4
6846, 2.8, 8.5
6847, 2.9, 8.6
6848, 2.8, 8.7
6849, 2.9, 8.8
6850, 2.8, 8.9
6851, 2.9, 9
6852, 2.8, 9.1
6853, 2.9, 9.2
6854, 2.8, 9.3
6855, 2.9, 9.4
6856, 2.8, 9.5
6857, 2.9, 9.6
6858, 2.8, 9.7
6859, 2.9, 9.8
6860, 2.8, 9.9
6861, 2.6, 0.1
6862, 2.7, 0.2
6863, 2.6, 0.3
6864, 2.7, 0.4
6865, 2.6, 0.5
6866, 2.7, 0.6
6867, 2.6, 0.7
6868, 2.7, 0.8
6869, 2.6, 0.9
6870, 2.7, 1
6871, 2.6, 1.1
6872, 2.7, 1.2
6873, 2.6, 1.3
6874, 2.7, 1.4
6875, 2.6, 1.5
6876, 2.7, 1.6
6877, 2.6, 1.7
6878, 2.7, 1.8
6879, 2.6, 1.9
6880, 2.7, 2
6881, 2.6, 2.1
6882, 2.7, 2.2
6883, 2.6, 2.3
6884, 2.7, 2.4
6885, 2.6, 2.5
6886, 2.7, 2.6
6887, 2.6, 2.7
6888, 2.7, 2.8
6889, 2.6, 2.9
6890, 2.7, 3
6891, 2.6, 3.1
6892, 2.7, 3.2
6893, 2.6, 3.3
6894, 2.7, 3.4
6895, 2.6, 3.5
6896, 2.7, 3.6
6897, 2.6, 3.7
6898, 2.7, 3.8
6899, 2.6, 3.9
6900, 2.7, 4
6901, 2.6, 4.1
6902, 2.7, 4.2
6903, 2.6, 4.3
6904, 2.7, 4.4
6905, 2.6, 4.5
6906, 2.7, 4.6
6907, 2.6, 4.7
6908, 2.7, 4.8
6909, 2.6, 4.9
6910, 2.7, 5
6911, 2.6, 5.1
6912, 2.7, 5.2
6913, 2.6, 5.3
6914, 2.7, 5.4
6915, 2.6, 5.5
6916, 2.7, 5.6
6917, 2.6, 5.7
6918, 2.7, 5.8
6919, 2.6, 5.9
6920, 2.7, 6
6921, 2.6, 6.1
6922, 2.7, 6.2
6923, 2.6, 6.3
6924, 2.7, 6.4
6925, 2.6, 6.5
6926, 2.7, 6.6
6927, 2.6, 6.7
6928, 2.7, 6.8
6929, 2.6, 6.9
6930, 2.7, 7
6931, 2.6, 7.1
6932, 2.7, 7.2
6933, 2.6, 7.3
6934, 2.7, 7.4
6935, 2.6, 7.5
6936, 2.7, 7.6
6937, 2.6, 7.7
6938, 2.7, 7.8
6939, 2.6, 7.9
6940, 2.7, 8
6941, 2.6, 8.1
6942, 2.7, 8.2
6943, 2.6, 8.3
6944, 2.7, 8.4
6945, 2.6, 8.5
6946, 2.7, 8.6
6947, 2.6, 8.7
6948, 2.7, 8.8
6949, 2.6, 8.9
6950, 2.7, 9
6951, 2.6, 9.1
6952, 2.7, 9.2
6953, 2.6, 9.3
6954, 2.7, 9.4
6955, 2.6, 9.5
6956, 2.7, 9.6
6957, 2.6, 9.7
6958, 2.7, 9.8
6959, 2.6, 9.9
6960, 2.4, 0.1
6961, 2.5, 0.2
6962, 2.4, 0.3
6963, 2.5, 0.4
6964, 2.4, 0.5
6965, 2.5, 0.6
6966, 2.4, 0.7
6967, 2.5, 0.8
6968, 2.4, 0.9
6969, 2.5, 1
6970, 2.4, 1.1
6971, 2.5, 1.2
6972, 2.4, 1.3
6973, 2.5, 1.4
6974, 2.4, 1.5
6975, 2.5, 1.6
6976, 2.4, 1.7
6977, 2.5, 1.8
6978, 2.4, 1.9
6979, 2.5, 2
6980, 2.4, 2.1
6981, 2.5, 2.2
6982, 2.4, 2.3
6983, 2.5, 2.4
6984, 2.4, 2.5
6985, 2.5, 2.6
6986, 2.4, 2.7
6987, 2.5, 2.8
6988, 2.4, 2.9
6989, 2.5, 3
6990, 2.4, 3.1
6991, 2.5, 3.2
6992, 2.4, 3.3
6993, 2.5, 3.4
6994, 2.4, 3.5
6995, 2.5, 3.6
6996, 2.4, 3.7
6997, 2.5, 3.8
6998, 2.4, 3.9
6999, 2.5, 4
7000, 2.4, 4.1
7001, 2.5, 4.2
7002, 2.4, 4.3
7003, 2.5, 4.4
7004, 2.4, 4.5
7005, 2.5, 4.6
7006, 2.4, 4.7
7007, 2.5, 4.8
7008, 2.4, 4.9
7009, 2.5, 5
7010, 2.4, 5.1
7011, 2.5, 5.2
7012, 2.4, 5.3
7013, 2.5, 5.4
7014, 2.4, 5.5
7015, 2.5, 5.6
7016, 2.4, 5.7
7017, 2.5, 5.8
7018, 2.4, 5.9
7019, 2.5, 6
7020, 2.4, 6.1
7021, 2.5, 6.2
7022, 2.4, 6.3
7023, 2.5, 6.4
7024, 2.4, 6.5
7025, 2.5, 6.6
7026, 2.4, 6.7
7027, 2.5, 6.8
7028, 2.4, 6.9
7029, 2.5, 7
7030, 2.4, 7.1
7031, 2.5, 7.2
7032, 2.4, 7.3
7033, 2.5, 7.4
7034, 2.4, 7.5
7035, 2.5, 7.6
7036, 2.4, 7.7
7037, 2.5, 7.8
7038, 2.4, 7.9
7039, 2.5, 8
7040, 2.4, 8.1
7041, 2.5, 8.2
7042, 2.4, 8.3
7043, 2.5, 8.4
7044, 2.4, 8.5
7045, 2.5, 8.6
7046, 2.4, 8.7
7047, 2.5, 8.8
7048, 2.4, 8.9
7049, 2.5, 9
7050, 2.4, 9.1
7051, 2.5, 9.2
7052, 2.4, 9.3
7053, 2.5, 9.4
7054, 2.4, 9.5
7055, 2.5, 9.6
7056, 2.4, 9.7
7057, 2.5, 9.8
7058, 2.4, 9.9
7059, 2.2, 0.1
7060, 2.3, 0.2
7061, 2.2, 0.3
7062, 2.3, 0.4
7063, 2.2, 0.5
7064, 2.3, 0.6
7065, 2.2, 0.7
7066, 2.3, 0.8
7067, 2.2, 0.9
7068, 2.3, 1
7069, 2.2, 1.1
7070, 2.3, 1.2
7071, 2.2, 1.3
7072, 2.3, 1.4
7073, 2.2, 1.5
7074, 2.3, 1.6
7075, 2.2, 1.7
7076, 2.3, 1.8
7077, 2.2, 1.9
7078, 2.3, 2
7079, 2.2, 2.1
7080, 2.3, 2.2
7081, 2.2, 2.3
7082, 2.3, 2.4
7083, 2.2, 2.5
7084, 2.3, 2.6
7085, 2.2, 2.7
7086, 2.3, 2.8
7087, 2.2, 2.9
7088, 2.3, 3
7089, 2.2, 3.1
7090, 2.3, 3.2
7091, 2.2, 3.3
7092, 2.3, 3.4
7093, 2.2, 3.5
7094, 2.3, 3.6
7095, 2.2, 3.7
7096, 2.3, 3.8
7097, 2.2, 3.9
7098, 2.3, 4
7099, 2.2, 4.1
7100, 2.3, 4.2
7101, 2.2, 4.3
7102, 2.3, 4.4
7103, 2.2, 4.5
7104, 2.3, 4.6
7105, 2.2, 4.7
7106, 2.3, 4.8
7107, 2.2, 4.9
7108, 2.3, 5
7109, 2.2, 5.1
7110, 2.3, 5.2
7111, 2.2, 5.3
7112, 2.3, 5.4
7113, 2.2, 5.5
7114, 2.3, 5.6
7115, 2.2, 5.7
7116, 2.3, 5.8
7117, 2.2, 5.9
7118, 2.3, 6
7119, 2.2, 6.1
7120, 2.3, 6.2
7121, 2.2, 6.3
7122, 2.3, 6.4
7123, 2.2, 6.5
7124, 2.3, 6.6
7125, 2.2, 6.7
7126, 2.3, 6.8
7127, 2.2, 6.9
7128, 2.3, 7
7129, 2.2, 7.1
7130, 2.3, 7.2
7131, 2.2, 7.3
7132, 2.3, 7.4
7133, 2.2, 7.5
7134, 2.3, 7.6
7135, 2.2, 7.7
7136, 2.3, 7.8
7137, 2.2, 7.9
7138, 2.3, 8
7139, 2.2, 8.1
7140, 2.3, 8.2
7141, 2.2, 8.3
7142, 2.3, 8.4
7143, 2.2, 8.5
7144, 2.3, 8.6
7145, 2.2, 8.7
7146, 2.3, 8.8
7147, 2.2, 8.9
7148, 2.3, 9
7149, 2.2, 9.1
7150, 2.3, 9.2
7151, 2.2, 9.3
7152, 2.3, 9.4
7153, 2.2, 9.5
7154, 2.3, 9.6
7155, 2.2, 9.7
7156, 2.3, 9.8
7157, 2.2, 9.9
7158, 2, 0.1
7159, 2.1, 0.2
7160, 2, 0.3
7161, 2.1, 0.4
7162, 2, 0.5
7163, 2.1, 0.6
7164, 2, 0.7
7165, 2.1, 0.8
7166, 2, 0.9
7167, 2.1, 1
7168, 2, 1.1
7169, 2.1, 1.2
7170, 2, 1.3
7171, 2.1, 1.4
7172, 2, 1.5
7173, 2.1, 1.6
7174, 2, 1.7
7175, 2.1, 1.8
7176, 2, 1.9
7177, 2.1, 2
7178, 2, 2.1
7179, 2.1, 2.2
7180, 2, 2.3
7181, 2.1, 2.4
7182, 2, 2.5
7183, 2.1, 2.6
7184, 2, 2.7
7185, 2.1, 2.8
7186, 2, 2.9
7187, 2.1, 3
7188, 2, 3.1
7189, 2.1, 3.2
7190, 2, 3.3
7191, 2.1, 3.4
7192, 2, 3.5
7193, 2.1, 3.6
7194, 2, 3.7
7195, 2.1, 3.8
7196, 2, 3.9
7197, 2.1, 4
7198, 2, 4.1
7199, 2.1, 4.2
7200, 2, 4.3
7201, 2.1, 4.4
7202, 2, 4.5
7203, 2.1, 4.6
7204, 2, 4.7
7205, 2.1, 4.8
7206, 2, 4.9
7207, 2.1, 5
7208, 2, 5.1
7209, 2.1, 5.2
7210, 2, 5.3
7211, 2.1, 5.4
7212, 2, 5.5
7213, 2.1, 5.6
7214, 2, 5.7
7215, 2.1, 5.8
7216, 2, 5.9
7217, 2.1, 6
7218, 2, 6.1
7219, 2.1, 6.2
7220, 2, 6.3
7221, 2.1, 6.4
7222, 2, 6.5
7223, 2.1, 6.6
7224, 2, 6.7
7225, 2.1, 6.8
7226, 2, 6.9
7227, 2.1, 7
7228, 2, 7.1
7229, 2.1, 7.2
7230, 2, 7.3
7231, 2.1, 7.4
7232, 2, 7.5
7233, 2.1, 7.6
7234, 2, 7.7
7235, 2.1, 7.8
7236, 2, 7.9
7237, 2.1, 8
7238, 2, 8.1
7239, 2.1, 8.2
7240, 2, 8.3
7241, 2.1, 8.4
7242, 2, 8.5
7243, 2.1, 8.6
7244, 2, 8.7
7245, 2.1, 8.8
7246, 2, 8.9
7247, 2.1, 9
7248, 2, 9.1
7249, 2.1, 9.2
7250, 2, 9.3
7251, 2.1, 9.4
7252, 2, 9.5
7253, 2.1, 9.6
7254, 2, 9.7
7255, 2.1, 9.8
7256, 2, 9.9
7257, 1.8, 0.1
7258, 1.9, 0.2
7259, 1.8, 0.3
7260, 1.9, 0.4
7261, 1.8, 0.5
7262, 1.9, 0.6
7263, 1.8, 0.7
7264, 1.9, 0.8
7265, 1.8, 0.9
7266, 1.9, 1
7267, 1.8, 1.1
7268, 1.9, 1.2
7269, 1.8, 1.3
7270, 1.9, 1.4
7271, 1.8, 1.5
7272, 1.9, 1.6
7273, 1.8, 1.7
7274, 1.9, 1.8
7275, 1.8, 1.9
7276, 1.9, 2
7277, 1.8, 2.1
7278, 1.9, 2.2
7279, 1.8, 2.3
7280, 1.9, 2.4
7281, 1.8, 2.5
7282, 1.9, 2.6
7283, 1.8, 2.7
7284, 1.9, 2.8
7285, 1.8, 2.9
7286, 1.9, 3
7287, 1.8, 3.1
7288, 1.9, 3.2
7289, 1.8, 3.3
7290, 1.9, 3.4
7291, 1.8, 3.5
7292, 1.9, 3.6
7293, 1.8, 3.7
7294, 1.9, 3.8
7295, 1.8, 3.9
7296, 1.9, 4
7297, 1.8, 4.1
7298, 1.9, 4.2
7299, 1.8, 4.3
7300, 1.9, 4.4
7301, 1.8, 4.5
7302, 1.9, 4.6
7303, 1.8, 4.7
7304, 1.9, 4.8
7305, 1.8, 4.9
7306, 1.9, 5
7307, 1.8, 5.1
7308, 1.9, 5.2
7309, 1.8, 5.3
7310, 1.9, 5.4
7311, 1.8, 5.5
7312, 1.9, 5.6
7313, 1.8, 5.7
7314, 1.9, 5.8
7315, 1.8, 5.9
7316, 1.9, 6
7317, 1.8, 6.1
7318, 1.9, 6.2
7319, 1.8, 6.3
7320, 1.9, 6.4
7321, 1.8, 6.5
7322, 1.9, 6.6
7323, 1.8, 6.7
7324, 1.9, 6.8
7325, 1.8, 6.9
7326, 1.9, 7
7327, 1.8, 7.1
7328, 1.9, 7.2
7329, 1.8, 7.3
7330, 1.9, 7.4
7331, 1.8, 7.5
7332, 1.9, 7.6
7333, 1.8, 7.7
7334, 1.9, 7.8
7335, 1.8, 7.9
7336, 1.9, 8
7337, 1.8, 8.1
7338, 1.9, 8.2
7339, 1.8, 8.3
7340, 1.9, 8.4
7341, 1.8, 8.5
7342, 1.9, 8.6
7343, 1.8, 8.7
7344, 1.9, 8.8
7345, 1.8, 8.9
7346, 1.9, 9
7347, 1.8, 9.1
7348, 1.9, 9.2
7349, 1.8, 9.3
7350, 1.9, 9.4
7351, 1.8, 9.5
7352, 1.9, 9.6
7353, 1.8, 9.7
7354, 1.9, 9.8
7355, 1.8, 9.9
7356, 1.6, 0.1
7357, 1.7, 0.2
7358, 1.6, 0.3
7359, 1.7, 0.4
7360, 1.6, 0.5
7361, 1.7, 0.6
7362, 1.6, 0.7
7363, 1.7, 0.8
7364, 1.6, 0.9
7365, 1.7, 1
7366, 1.6, 1.1
7367, 1.7, 1.2
7368, 1.6, 1.3
7369, 1.7, 1.4
7370, 1.6, 1.5
7371, 1.7, 1.6
7372, 1.6, 1.7
7373, 1.7, 1.8
7374, 1.6, 1.9
7375, 1.7, 2
7376, 1.6, 2.1
7377, 1.7, 2.2
7378, 1.6, 2.3
7379, 1.7, 2.4
7380, 1.6, 2.5
7381, 1.7, 2.6
7382, 1.6, 2.7
7383, 1.7, 2.8
7384, 1.6, 2.9
7385, 1.7, 3
7386, 1.6, 3.1
7387, 1.7, 3.2
7388, 1.6, 3.3
7389, 1.7, 3.4
7390, 1.6, 3.5
7391, 1.7, 3.6
7392, 1.6, 3.7
7393, 1.7, 3.8
7394, 1.6, 3.9
7395, 1.7, 4
7396, 1.6, 4.1
7397, 1.7, 4.2
7398, 1.6, 4.3
7399, 1.7, 4.4
7400, 1.6, 4.5
7401, 1.7, 4.6
7402, 1.6, 4.7
7403, 1.7, 4.8
7404, 1.6, 4.9
7405, 1.7, 5
7406, 1.6, 5.1
7407, 1.7, 5.2
7408, 1.6, 5.3
7409, 1.7, 5.4
7410, 1.6, 5.5
7411, 1.7, 5.6
7412, 1.6, 5.7
7413, 1.7, 5.8
7414, 1.6, 5.9
7415, 1.7, 6
7416, 1.6, 6.1
7417, 1.7, 6.2
7418, 1.6, 6.3
7419, 1.7, 6.4
7420, 1.6, 6.5
7421, 1.7, 6.6
7422, 1.6, 6.7
7423, 1.7, 6.8
7424, 1.6, 6.9
7425, 1.7, 7
7426, 1.6, 7.1
7427, 1.7, 7.2
7428, 1.6, 7.3
7429, 1.7, 7.4
7430, 1.6, 7.5
7431, 1.7, 7.6
7432, 1.6, 7.7
7433, 1.7, 7.8
7434, 1.6, 7.9
7435, 1.7, 8
7436, 1.6, 8.1
7437, 1.7, 8.2
7438, 1.6, 8.3
7439, 1.7, 8.4
7440, 1.6, 8.5
7441, 1.7, 8.6
7442, 1.6, 8.7
7443, 1.7, 8.8
7444, 1.6, 8.9
7445, 1.7, 9
7446, 1.6, 9.1
7447, 1.7, 9.2
7448, 1.6, 9.3
7449, 1.7, 9.4
7450, 1.6, 9.5
7451, 1.7, 9.6
7452, 1.6, 9.7
7453, 1.7, 9.8
7454, 1.6, 9.9
7455, 1.4, 0.1
7456, 1.5, 0.2
7457, 1.4, 0.3
7458, 1.5, 0.4
7459, 1.4, 0.5
7460, 1.5, 0.6
7461, 1.4, 0.7
7462, 1.5, 0.8
7463, 1.4, 0.9
7464, 1.5, 1
7465, 1.4, 1.1
7466, 1.5, 1.2
7467, 1.4, 1.3
7468, 1.5, 1.4
7469, 1.4, 1.5
7470, 1.5, 1.6
7471, 1.4, 1.7
7472, 1.5, 1.8
7473, 1.4, 1.9
7474, 1.5, 2
7475, 1.4, 2.1
7476, 1.5, 2.2
7477, 1.4, 2.3
7478, 1.5, 2.4
7479, 1.4, 2.5
7480, 1.5, 2.6
7481, 1.4, 2.7
7482, 1.5, 2.8
7483, 1.4, 2.9
7484, 1.5, 3
7485, 1.4, 3.1
7486, 1.5, 3.2
7487, 1.4, 3.3
7488, 1.5, 3.4
7489, 1.4, 3.5
7490, 1.5, 3.6
7491, 1.4, 3.7
7492, 1.5, 3.8
7493, 1.4, 3.9
7494, 1.5, 4
7495, 1.4, 4.1
7496, 1.5, 4.2
7497, 1.4, 4.3
7498, 1.5, 4.4
7499, 1.4, 4.5
7500, 1.5, 4.6
7501, 1.4, 4.7
7502, 1.5, 4.8
7503, 1.4, 4.9
7504, 1.5, 5
7505, 1.4, 5.1
7506, 1.5, 5.2
7507, 1.4, 5.3
7508, 1.5, 5.4
7509, 1.4, 5.5
7510, 1.5, 5.6
7511, 1.4, 5.7
7512, 1.5, 5.8
7513, 1.4, 5.9
7514, 1.5, 6
7515, 1.4, 6.1
7516, 1.5, 6.2
7517, 1.4, 6.3
7518, 1.5, 6.4
7519, 1.4, 6.5
7520, 1.5, 6.6
7521, 1.4, 6.7
7522, 1.5, 6.8
7523, 1.4, 6.9
7524, 1.5, 7
7525, 1.4, 7.1
7526, 1.5, 7.2
7527, 1.4, 7.3
7528, 1.5, 7.4
7529, 1.4, 7.5
7530, 1.5, 7.6
7531, 1.4, 7.7
7532, 1.5, 7.8
7533, 1.4, 7.9
7534, 1.5, 8
7535, 1.4, 8.1
7536, 1.5, 8.2
7537, 1.4, 8.3
7538, 1.5, 8.4
7539, 1.4, 8.5
7540, 1.5, 8.6
7541, 1.4, 8.7
7542, 1.5, 8.8
7543, 1.4, 8.9
7544, 1.5, 9
7545, 1.4, 9.1
7546, 1.5, 9.2
7547, 1.4, 9.3
7548, 1.5, 9.4
7549, 1.4, 9.5
7550, 1.5, 9.6
7551, 1.4, 9.7
7552, 1.5, 9.8
7553, 1.4, 9.9
7554, 1.2, 0.1
7555, 1.3, 0.2
7556, 1.2, 0.3
7557, 1.3, 0.4
7558, 1.2, 0.5
7559, 1.3, 0.6
7560, 1.2, 0.7
7561, 1.3, 0.8
7562, 1.2, 0.9
7563, 1.3, 1
7564, 1.2, 1.1
7565, 1.3, 1.2
7566, 1.2, 1.3
7567, 1.3, 1.4
7568, 1.2, 1.5
7569, 1.3, 1.6
7570, 1.2, 1.7
7571, 1.3, 1.8
7572, 1.2, 1.9
7573, 1.3, 2
7574, 1.2, 2.1
7575, 1.3, 2.2
7576, 1.2, 2.3
7577, 1.3, 2.4
7578, 1.2, 2.5
7579, 1.3, 2.6
7580, 1.2, 2.7
7581, 1.3, 2.8
7582, 1.2, 2.9
7583, 1.3, 3
7584, 1.2, 3.1
7585, 1.3, 3.2
7586, 1.2, 3.3
7587, 1.3, 3.4
7588, 1.2, 3.5
7589, 1.3, 3.6
7590, 1.2, 3.7
7591, 1.3, 3.8
7592, 1.2, 3.9
7593, 1.3, 4
7594, 1.2, 4.1
7595, 1.3, 4.2
7596, 1.2, 4.3
7597, 1.3, 4.4
7598, 1.2, 4.5
7599, 1.3, 4.6
7600, 1.2, 4.7
7601, 1.3, 4.8
7602, 1.2, 4.9
7603, 1.3, 5
7604, 1.2, 5.1
7605, 1.3, 5.2
7606, 1.2, 5.3
7607, 1.3, 5.4
7608, 1.2, 5.5
7609, 1.3, 5.6
7610, 1.2, 5.7
7611, 1.3, 5.8
7612, 1.2, 5.9
7613, 1.3, 6
7614, 1.2, 6.1
7615, 1.3, 6.2
7616, 1.2, 6.3
7617, 1.3, 6.4
7618, 1.2, 6.5
7619, 1.3, 6.6
7620, 1.2, 6.7
7621, 1.3, 6.8
7622, 1.2, 6.9
7623, 1.3, 7
7624, 1.2, 7.1
7625, 1.3, 7.2
7626, 1.2, 7.3
7627, 1.3, 7.4
7628, 1.2, 7.5
7629, 1.3, 7.6
7630, 1.2, 7.7
7631, 1.3, 7.8
7632, 1.2, 7.9
7633, 1.3, 8
7634, 1.2, 8.1
7635, 1.3, 8.2
7636, 1.2, 8.3
7637, 1.3, 8.4
7638, 1.2, 8.5
7639, 1.3, 8.6
7640, 1.2, 8.7
7641, 1.3, 8.8
7642, 1.2, 8.9
7643, 1.3, 9
7644, 1.2, 9.1
7645, 1.3, 9.2
7646, 1.2, 9.3
7647, 1.3, 9.4
7648, 1.2, 9.5
7649, 1.3, 9.6
7650, 1.2, 9.7
7651, 1.3, 9.8
7652, 1.2, 9.9
7653, 1.1, 0.2
7654, 1.1, 0.4
7655, 1.1, 0.6
7656, 1.1, 0.8
7657, 1.1, 1
7658, 1.1, 1.2
7659, 1.1, 1.4
7660, 1.1, 1.6
7661, 1.1, 1.8
7662, 1.1, 2
7663, 1.1, 2.2
7664, 1.1, 2.4
7665, 1.1, 2.6
7666, 1.1, 2.8
7667, 1.1, 3
7668, 1.1, 3.2
7669, 1.1, 3.4
7670, 1.1, 3.6
7671, 1.1, 3.8
7672, 1.1, 4
7673, 1.1, 4.2
7674, 1.1, 4.4
7675, 1.1, 4.6
7676, 1.1, 4.8
7677, 1.1, 5
7678, 1.1, 5.2
7679, 1.1, 5.4
7680, 1.1, 5.6
7681, 1.1, 5.8
7682, 1.1, 6
7683, 1.1, 6.2
7684, 1.1, 6.4
7685, 1.1, 6.6
7686, 1.1, 6.8
7687, 1.1, 7
7688, 1.1, 7.2
7689, 1.1, 7.4
7690, 1.1, 7.6
7691, 1.1, 7.8
7692, 1.1, 8
7693, 1.1, 8.2
7694, 1.1, 8.4
7695, 1.1, 8.6
7696, 1.1, 8.8
7697, 1.1, 9
7698, 1.1, 9.2
7699, 1.1, 9.4
7700, 1.1, 9.6
7701, 1.1, 9.8
*Element, Type=CAX8
251, 1, 59, 250, 7, 2656, 2853, 2852, 2602
252, 59, 58, 251, 250, 2655, 2855, 2854, 2853
253, 58, 57, 252, 251, 2654, 2857, 2856, 2855
254, 57, 56, 253, 252, 2653, 2859, 2858, 2857
255, 56, 55, 254, 253, 2652, 2861, 2860, 2859
256, 55, 54, 255, 254, 2651, 2863, 2862, 2861
257, 54, 53, 256, 255, 2650, 2865, 2864, 2863
258, 53, 52, 257, 256, 2649, 2867, 2866, 2865
259, 52, 51, 258, 257, 2648, 2869, 2868, 2867
260, 51, 50, 259, 258, 2647, 2871, 2870, 2869
261, 50, 49, 260, 259, 2646, 2873, 2872, 2871
262, 49, 48, 261, 260, 2645, 2875, 2874, 2873
263, 48, 47, 262, 261, 2644, 2877, 2876, 2875
264, 47, 46, 263, 262, 2643, 2879, 2878, 2877
265, 46, 45, 264, 263, 2642, 2881, 2880, 2879
266, 45, 44, 265, 264, 2641, 2883, 2882, 2881
267, 44, 43, 266, 265, 2640, 2885, 2884, 2883
268, 43, 42, 267, 266, 2639, 2887, 2886, 2885
269, 42, 41, 268, 267, 2638, 2889, 2888, 2887
270, 41, 40, 269, 268, 2637, 2891, 2890, 2889
271, 40, 39, 270, 269, 2636, 2893, 2892, 2891
272, 39, 38, 271, 270, 2635, 2895, 2894, 2893
273, 38, 37, 272, 271, 2634, 2897, 2896, 2895
274, 37, 36, 273, 272, 2633, 2899, 2898, 2897
275, 36, 35, 274, 273, 2632, 2901, 2900, 2899
276, 35, 34, 275, 274, 2631, 2903, 2902, 2901
277, 34, 33, 276, 275, 2630, 2905, 2904, 2903
278, 33, 32, 277, 276, 2629, 2907, 2906, 2905
279, 32, 31, 278, 277, 2628, 2909, 2908, 2907
280, 31, 30, 279, 278, 2627, 2911, 2910, 2909
281, 30, 29, 280, 279, 2626, 2913, 2912, 2911
282, 29, 28, 281, 280, 2625, 2915, 2914, 2913
283, 28, 27, 282, 281, 2624, 2917, 2916, 2915
284, 27, 26, 283, 282, 2623, 2919, 2918, 2917
285, 26, 25, 284, 283, 2622, 2921, 2920, 2919
286, 25, 24, 285, 284, 2621, 2923, 2922, 2921
287, 24, 23, 286, 285, 2620, 2925, 2924, 2923
288, 23, 22, 287, 286, 2619, 2927, 2926, 2925
289, 22, 21, 288, 287, 2618, 2929, 2928, 2927
290, 21, 20, 289, 288, 2617, 2931, 2930, 2929
291, 20, 19, 290, 289, 2616, 2933, 2932, 2931
292, 19, 18, 291, 290, 2615, 2935, 2934, 2933
293, 18, 17, 292, 291, 2614, 2937, 2936, 2935
294, 17, 16, 293, 292, 2613, 2939, 2938, 2937
295, 16, 15, 294, 293, 2612, 2941, 2940, 2939
296, 15, 14, 295, 294, 2611, 2943, 2942, 2941
297, 14, 13, 296, 295, 2610, 2945, 2944, 2943
298, 13, 12, 297, 296, 2609, 2947, 2946, 2945
299, 12, 11, 298, 297, 2608, 2949, 2948, 2947
300, 11, 3, 63, 298, 2607, 2661, 2950, 2949
301, 7, 250, 299, 8, 2852, 2952, 2951, 2603
302, 250, 251, 300, 299, 2854, 2954, 2953, 2952
303, 251, 252, 301, 300, 2856, 2956, 2955, 2954
304, 252, 253, 302, 301, 2858, 2958, 2957, 2956
305, 253, 254, 303, 302, 2860, 2960, 2959, 2958
306, 254, 255, 304, 303, 2862, 2962, 2961, 2960
307, 255, 256, 305, 304, 2864, 2964, 2963, 2962
308, 256, 257, 306, 305, 2866, 2966, 2965, 2964
309, 257, 258, 307, 306, 2868, 2968, 2967, 2966
310, 258, 259, 308, 307, 2870, 2970, 2969, 2968
311, 259, 260, 309, 308, 2872, 2972, 2971, 2970
312, 260, 261, 310, 309, 2874, 2974, 2973, 2972
313, 261, 262, 311, 310, 2876, 2976, 2975, 2974
314, 262, 263, 312, 311, 2878, 2978, 2977, 2976
315, 263, 264, 313, 312, 2880, 2980, 2979, 2978
316, 264, 265, 314, 313, 2882, 2982, 2981, 2980
317, 265, 266, 315, 314, 2884, 2984, 2983, 2982
318, 266, 267, 316, 315, 2886, 2986, 2985, 2984
319, 267, 268, 317, 316, 2888, 2988, 2987, 2986
320, 268, 269, 318, 317, 2890, 2990, 2989, 2988
321, 269, 270, 319, 318, 2892, 2992, 2991, 2990
322, 270, 271, 320, 319, 2894, 2994, 2993, 2992
323, 271, 272, 321, 320, 2896, 2996, 2995, 2994
324, 272, 273, 322, 321, 2898, 2998, 2997, 2996
325, 273, 274, 323, 322, 2900, 3000, 2999, 2998
326, 274, 275, 324, 323, 2902, 3002, 3001, 3000
327, 275, 276, 325, 324, 2904, 3004, 3003, 3002
328, 276, 277, 326, 325, 2906, 3006, 3005, 3004
329, 277, 278, 327, 326, 2908, 3008, 3007, 3006
330, 278, 279, 328, 327, 2910, 3010, 3009, 3008
331, 279, 280, 329, 328, 2912, 3012, 3011, 3010
332, 280, 281, 330, 329, 2914, 3014, 3013, 3012
333, 281, 282, 331, 330, 2916, 3016, 3015, 3014
334, 282, 283, 332, 331, 2918, 3018, 3017, 3016
335, 283, 284, 333, 332, 2920, 3020, 3019, 3018
336, 284, 285, 334, 333, 2922, 3022, 3021, 3020
337, 285, 286, 335, 334, 2924, 3024, 3023, 3022
338, 286, 287, 336, 335, 2926, 3026, 3025, 3024
339, 287, 288, 337, 336, 2928, 3028, 3027, 3026
340, 288, 289, 338, 337, 2930, 3030, 3029, 3028
341, 289, 290, 339, 338, 2932, 3032, 3031, 3030
342, 290, 291, 340, 339, 2934, 3034, 3033, 3032
343, 291, 292, 341, 340, 2936, 3036, 3035, 3034
344, 292, 293, 342, 341, 2938, 3038, 3037, 3036
345, 293, 294, 343, 342, 2940, 3040, 3039, 3038
346, 294, 295, 344, 343, 2942, 3042, 3041, 3040
347, 295, 296, 345, 344, 2944, 3044, 3043, 3042
348, 296, 297, 346, 345, 2946, 3046, 3045, 3044
349, 297, 298, 347, 346, 2948, 3048, 3047, 3046
350, 298, 63, 62, 347, 2950, 2660, 3049, 3048
351, 8, 299, 348, 9, 2951, 3051, 3050, 2604
352, 299, 300, 349, 348, 2953, 3053, 3052, 3051
353, 300, 301, 350, 349, 2955, 3055, 3054, 3053
354, 301, 302, 351, 350, 2957, 3057, 3056, 3055
355, 302, 303, 352, 351, 2959, 3059, 3058, 3057
356, 303, 304, 353, 352, 2961, 3061, 3060, 3059
357, 304, 305, 354, 353, 2963, 3063, 3062, 3061
358, 305, 306, 355, 354, 2965, 3065, 3064, 3063
359, 306, 307, 356, 355, 2967, 3067, 3066, 3065
360, 307, 308, 357, 356, 2969, 3069, 3068, 3067
361, 308, 309, 358, 357, 2971, 3071, 3070, 3069
362, 309, 310, 359, 358, 2973, 3073, 3072, 3071
363, 310, 311, 360, 359, 2975, 3075, 3074, 3073
364, 311, 312, 361, 360, 2977, 3077, 3076, 3075
365, 312, 313, 362, 361, 2979, 3079, 3078, 3077
366, 313, 314, 363, 362, 2981, 3081, 3080, 3079
367, 314, 315, 364, 363, 2983, 3083, 3082, 3081
368, 315, 316, 365, 364, 2985, 3085, 3084, 3083
369, 316, 317, 366, 365, 2987, 3087, 3086, 3085
370, 317, 318, 367, 366, 2989, 3089, 3088, 3087
371, 318, 319, 368, 367, 2991, 3091, 3090, 3089
372, 319, 320, 369, 368, 2993, 3093, 3092, 3091
373, 320, 321, 370, 369, 2995, 3095, 3094, 3093
374, 321, 322, 371, 370, 2997, 3097, 3096, 3095
375, 322, 323, 372, 371, 2999, 3099, 3098, 3097
376, 323, 324, 373, 372, 3001, 3101, 3100, 3099
377, 324, 325, 374, 373, 3003, 3103, 3102, 3101
378, 325, 326, 375, 374, 3005, 3105, 3104, 3103
379, 326, 327, 376, 375, 3007, 3107, 3106, 3105
380, 327, 328, 377, 376, 3009, 3109, 3108, 3107
381, 328, 329, 378, 377, 3011, 3111, 3110, 3109
382, 329, 330, 379, 378, 3013, 3113, 3112, 3111
383, 330, 331, 380, 379, 3015, 3115, 3114, 3113
384, 331, 332, 381, 380, 3017, 3117, 3116, 3115
385, 332, 333, 382, 381, 3019, 3119, 3118, 3117
386, 333, 334, 383, 382, 3021, 3121, 3120, 3119
387, 334, 335, 384, 383, 3023, 3123, 3122, 3121
388, 335, 336, 385, 384, 3025, 3125, 3124, 3123
389, 336, 337, 386, 385, 3027, 3127, 3126, 3125
390, 337, 338, 387, 386, 3029, 3129, 3128, 3127
391, 338, 339, 388, 387, 3031, 3131, 3130, 3129
392, 339, 340, 389, 388, 3033, 3133, 3132, 3131
393, 340, 341, 390, 389, 3035, 3135, 3134, 3133
394, 341, 342, 391, 390, 3037, 3137, 3136, 3135
395, 342, 343, 392, 391, 3039, 3139, 3138, 3137
396, 343, 344, 393, 392, 3041, 3141, 3140, 3139
397, 344, 345, 394, 393, 3043, 3143, 3142, 3141
398, 345, 346, 395, 394, 3045, 3145, 3144, 3143
399, 346, 347, 396, 395, 3047, 3147, 3146, 3145
400, 347, 62, 61, 396, 3049, 2659, 3148, 3147
401, 9, 348, 397, 10, 3050, 3150, 3149, 2605
402, 348, 349, 398, 397, 3052, 3152, 3151, 3150
403, 349, 350, 399, 398, 3054, 3154, 3153, 3152
404, 350, 351, 400, 399, 3056, 3156, 3155, 3154
405, 351, 352, 401, 400, 3058, 3158, 3157, 3156
406, 352, 353, 402, 401, 3060, 3160, 3159, 3158
407, 353, 354, 403, 402, 3062, 3162, 3161, 3160
408, 354, 355, 404, 403, 3064, 3164, 3163, 3162
409, 355, 356, 405, 404, 3066, 3166, 3165, 3164
410, 356, 357, 406, 405, 3068, 3168, 3167, 3166
411, 357, 358, 407, 406, 3070, 3170, 3169, 3168
412, 358, 359, 408, 407, 3072, 3172, 3171, 3170
413, 359, 360, 409, 408, 3074, 3174, 3173, 3172
414, 360, 361, 410, 409, 3076, 3176, 3175, 3174
415, 361, 362, 411, 410, 3078, 3178, 3177, 3176
416, 362, 363, 412, 411, 3080, 3180, 3179, 3178
417, 363, 364, 413, 412, 3082, 3182, 3181, 3180
418, 364, 365, 414, 413, 3084, 3184, 3183, 3182
419, 365, 366, 415, 414, 3086, 3186, 3185, 3184
420, 366, 367, 416, 415, 3088, 3188, 3187, 3186
421, 367, 368, 417, 416, 3090, 3190, 3189, 3188
422, 368, 369, 418, 417, 3092, 3192, 3191, 3190
423, 369, 370, 419, 418, 3094, 3194, 3193, 3192
424, 370, 371, 420, 419, 3096, 3196, 3195, 3194
425, 371, 372, 421, 420, 3098, 3198, 3197, 3196
426, 372, 373, 422, 421, 3100, 3200, 3199, 3198
427, 373, 374, 423, 422, 3102, 3202, 3201, 3200
428, 374, 375, 424, 423, 3104, 3204, 3203, 3202
429, 375, 376, 425, 424, 3106, 3206, 3205, 3204
430, 376, 377, 426, 425, 3108, 3208, 3207, 3206
431, 377, 378, 427, 426, 3110, 3210, 3209, 3208
432, 378, 379, 428, 427, 3112, 3212, 3211, 3210
433, 379, 380, 429, 428, 3114, 3214, 3213, 3212
434, 380, 381, 430, 429, 3116, 3216, 3215, 3214
435, 381, 382, 431, 430, 3118, 3218, 3217, 3216
436, 382, 383, 432, 431, 3120, 3220, 3219, 3218
437, 383, 384, 433, 432, 3122, 3222, 3221, 3220
438, 384, 385, 434, 433, 3124, 3224, 3223, 3222
439, 385, 386, 435, 434, 3126, 3226, 3225, 3224
440, 386, 387, 436, 435, 3128, 3228, 3227, 3226
441, 387, 388, 437, 436, 3130, 3230, 3229, 3228
442, 388, 389, 438, 437, 3132, 3232, 3231, 3230
443, 389, 390, 439, 438, 3134, 3234, 3233, 3232
444, 390, 391, 440, 439, 3136, 3236, 3235, 3234
445, 391, 392, 441, 440, 3138, 3238, 3237, 3236
446, 392, 393, 442, 441, 3140, 3240, 3239, 3238
447, 393, 394, 443, 442, 3142, 3242, 3241, 3240
448, 394, 395, 444, 443, 3144, 3244, 3243, 3242
449, 395, 396, 445, 444, 3146, 3246, 3245, 3244
450, 396, 61, 60, 445, 3148, 2658, 3247, 3246
451, 10, 397, 64, 2, 3149, 3248, 2662, 2606
452, 397, 398, 65, 64, 3151, 3249, 2663, 3248
453, 398, 399, 66, 65, 3153, 3250, 2664, 3249
454, 399, 400, 67, 66, 3155, 3251, 2665, 3250
455, 400, 401, 68, 67, 3157, 3252, 2666, 3251
456, 401, 402, 69, 68, 3159, 3253, 2667, 3252
457, 402, 403, 70, 69, 3161, 3254, 2668, 3253
458, 403, 404, 71, 70, 3163, 3255, 2669, 3254
459, 404, 405, 72, 71, 3165, 3256, 2670, 3255
460, 405, 406, 73, 72, 3167, 3257, 2671, 3256
461, 406, 407, 74, 73, 3169, 3258, 2672, 3257
462, 407, 408, 75, 74, 3171, 3259, 2673, 3258
463, 408, 409, 76, 75, 3173, 3260, 2674, 3259
464, 409, 410, 77, 76, 3175, 3261, 2675, 3260
465, 410, 411, 78, 77, 3177, 3262, 2676, 3261
466, 411, 412, 79, 78, 3179, 3263, 2677, 3262
467, 412, 413, 80, 79, 3181, 3264, 2678, 3263
468, 413, 414, 81, 80, 3183, 3265, 2679, 3264
469, 414, 415, 82, 81, 3185, 3266, 2680, 3265
470, 415, 416, 83, 82, 3187, 3267, 2681, 3266
471, 416, 417, 84, 83, 3189, 3268, 2682, 3267
472, 417, 418, 85, 84, 3191, 3269, 2683, 3268
473, 418, 419, 86, 85, 3193, 3270, 2684, 3269
474, 419, 420, 87, 86, 3195, 3271, 2685, 3270
475, 420, 421, 88, 87, 3197, 3272, 2686, 3271
476, 421, 422, 89, 88, 3199, 3273, 2687, 3272
477, 422, 423, 90, 89, 3201, 3274, 2688, 3273
478, 423, 424, 91, 90, 3203, 3275, 2689, 3274
479, 424, 425, 92, 91, 3205, 3276, 2690, 3275
480, 425, 426, 93, 92, 3207, 3277, 2691, 3276
481, 426, 427, 94, 93, 3209, 3278, 2692, 3277
482, 427, 428, 95, 94, 3211, 3279, 2693, 3278
483, 428, 429, 96, 95, 3213, 3280, 2694, 3279
484, 429, 430, 97, 96, 3215, 3281, 2695, 3280
485, 430, 431, 98, 97, 3217, 3282, 2696, 3281
486, 431, 432, 99, 98, 3219, 3283, 2697, 3282
487, 432, 433, 100, 99, 3221, 3284, 2698, 3283
488, 433, 434, 101, 100, 3223, 3285, 2699, 3284
489, 434, 435, 102, 101, 3225, 3286, 2700, 3285
490, 435, 436, 103, 102, 3227, 3287, 2701, 3286
491, 436, 437, 104, 103, 3229, 3288, 2702, 3287
492, 437, 438, 105, 104, 3231, 3289, 2703, 3288
493, 438, 439, 106, 105, 3233, 3290, 2704, 3289
494, 439, 440, 107, 106, 3235, 3291, 2705, 3290
495, 440, 441, 108, 107, 3237, 3292, 2706, 3291
496, 441, 442, 109, 108, 3239, 3293, 2707, 3292
497, 442, 443, 110, 109, 3241, 3294, 2708, 3293
498, 443, 444, 111, 110, 3243, 3295, 2709, 3294
499, 444, 445, 112, 111, 3245, 3296, 2710, 3295
500, 445, 60, 4, 112, 3247, 2657, 2711, 3296
501, 5, 205, 446, 113, 2806, 3298, 3297, 2712
502, 205, 204, 447, 446, 2805, 3300, 3299, 3298
503, 204, 203, 448, 447, 2804, 3302, 3301, 3300
504, 203, 202, 449, 448, 2803, 3304, 3303, 3302
505, 202, 201, 450, 449, 2802, 3306, 3305, 3304
506, 201, 200, 451, 450, 2801, 3308, 3307, 3306
507, 200, 199, 452, 451, 2800, 3310, 3309, 3308
508, 199, 198, 453, 452, 2799, 3312, 3311, 3310
509, 198, 197, 454, 453, 2798, 3314, 3313, 3312
510, 197, 196, 455, 454, 2797, 3316, 3315, 3314
511, 196, 195, 456, 455, 2796, 3318, 3317, 3316
512, 195, 194, 457, 456, 2795, 3320, 3319, 3318
513, 194, 193, 458, 457, 2794, 3322, 3321, 3320
514, 193, 192, 459, 458, 2793, 3324, 3323, 3322
515, 192, 191, 460, 459, 2792, 3326, 3325, 3324
516, 191, 190, 461, 460, 2791, 3328, 3327, 3326
517, 190, 189, 462, 461, 2790, 3330, 3329, 3328
518, 189, 188, 463, 462, 2789, 3332, 3331, 3330
519, 188, 187, 464, 463, 2788, 3334, 3333, 3332
520, 187, 186, 465, 464, 2787, 3336, 3335, 3334
521, 186, 185, 466, 465, 2786, 3338, 3337, 3336
522, 185, 184, 467, 466, 2785, 3340, 3339, 3338
523, 184, 183, 468, 467, 2784, 3342, 3341, 3340
524, 183, 182, 469, 468, 2783, 3344, 3343, 3342
525, 182, 181, 470, 469, 2782, 3346, 3345, 3344
526, 181, 180, 471, 470, 2781, 3348, 3347, 3346
527, 180, 179, 472, 471, 2780, 3350, 3349, 3348
528, 179, 178, 473, 472, 2779, 3352, 3351, 3350
529, 178, 177, 474, 473, 2778, 3354, 3353, 3352
530, 177, 176, 475, 474, 2777, 3356, 3355, 3354
531, 176, 175, 476, 475, 2776, 3358, 3357, 3356
532, 175, 174, 477, 476, 2775, 3360, 3359, 3358
533, 174, 173, 478, 477, 2774, 3362, 3361, 3360
534, 173, 172, 479, 478, 2773, 3364, 3363, 3362
535, 172, 171, 480, 479, 2772, 3366, 3365, 3364
536, 171, 170, 481, 480, 2771, 3368, 3367, 3366
537, 170, 169, 482, 481, 2770, 3370, 3369, 3368
538, 169, 168, 483, 482, 2769, 3372, 3371, 3370
539, 168, 167, 484, 483, 2768, 3374, 3373, 3372
540, 167, 166, 485, 484, 2767, 3376, 3375, 3374
541, 166, 165, 486, 485, 2766, 3378, 3377, 3376
542, 165, 164, 487, 486, 2765, 3380, 3379, 3378
543, 164, 163, 488, 487, 2764, 3382, 3381, 3380
544, 163, 162, 489, 488, 2763, 3384, 3383, 3382
545, 162, 161, 490, 489, 2762, 3386, 3385, 3384
546, 161, 160, 491, 490, 2761, 3388, 3387, 3386
547, 160, 159, 492, 491, 2760, 3390, 3389, 3388
548, 159, 158, 493, 492, 2759, 3392, 3391, 3390
549, 158, 157, 494, 493, 2758, 3394, 3393, 3392
550, 157, 6, 249, 494, 2757, 2851, 3395, 3394
551, 113, 446, 495, 114, 3297, 3397, 3396, 2713
552, 446, 447, 496, 495, 3299, 3399, 3398, 3397
553, 447, 448, 497, 496, 3301, 3401, 3400, 3399
554, 448, 449, 498, 497, 3303, 3403, 3402, 3401
555, 449, 450, 499, 498, 3305, 3405, 3404, 3403
556, 450, 451, 500, 499, 3307, 3407, 3406, 3405
557, 451, 452, 501, 500, 3309, 3409, 3408, 3407
558, 452, 453, 502, 501, 3311, 3411, 3410, 3409
559, 453, 454, 503, 502, 3313, 3413, 3412, 3411
560, 454, 455, 504, 503, 3315, 3415, 3414, 3413
561, 455, 456, 505, 504, 3317, 3417, 3416, 3415
562, 456, 457, 506, 505, 3319, 3419, 3418, 3417
563, 457, 458, 507, 506, 3321, 3421, 3420, 3419
564, 458, 459, 508, 507, 3323, 3423, 3422, 3421
565, 459, 460, 509, 508, 3325, 3425, 3424, 3423
566, 460, 461, 510, 509, 3327, 3427, 3426, 3425
567, 461, 462, 511, 510, 3329, 3429, 3428, 3427
568, 462, 463, 512, 511, 3331, 3431, 3430, 3429
569, 463, 464, 513, 512, 3333, 3433, 3432, 3431
570, 464, 465, 514, 513, 3335, 3435, 3434, 3433
571, 465, 466, 515, 514, 3337, 3437, 3436, 3435
572, 466, 467, 516, 515, 3339, 3439, 3438, 3437
573, 467, 468, 517, 516, 3341, 3441, 3440, 3439
574, 468, 469, 518, 517, 3343, 3443, 3442, 3441
575, 469, 470, 519, 518, 3345, 3445, 3444, 3443
576, 470, 471, 520, 519, 3347, 3447, 3446, 3445
577, 471, 472, 521, 520, 3349, 3449, 3448, 3447
578, 472, 473, 522, 521, 3351, 3451, 3450, 3449
579, 473, 474, 523, 522, 3353, 3453, 3452, 3451
580, 474, 475, 524, 523, 3355, 3455, 3454, 3453
581, 475, 476, 525, 524, 3357, 3457, 3456, 3455
582, 476, 477, 526, 525, 3359, 3459, 3458, 3457
583, 477, 478, 527, 526, 3361, 3461, 3460, 3459
584, 478, 479, 528, 527, 3363, 3463, 3462, 3461
585, 479, 480, 529, 528, 3365, 3465, 3464, 3463
586, 480, 481, 530, 529, 3367, 3467, 3466, 3465
587, 481, 482, 531, 530, 3369, 3469, 3468, 3467
588, 482, 483, 532, 531, 3371, 3471, 3470, 3469
589, 483, 484, 533, 532, 3373, 3473, 3472, 3471
590, 484, 485, 534, 533, 3375, 3475, 3474, 3473
591, 485, 486, 535, 534, 3377, 3477, 3476, 3475
592, 486, 487, 536, 535, 3379, 3479, 3478, 3477
593, 487, 488, 537, 536, 3381, 3481, 3480, 3479
594, 488, 489, 538, 537, 3383, 3483, 3482, 3481
595, 489, 490, 539, 538, 3385, 3485, 3484, 3483
596, 490, 491, 540, 539, 3387, 3487, 3486, 3485
597, 491, 492, 541, 540, 3389, 3489, 3488, 3487
598, 492, 493, 542, 541, 3391, 3491, 3490, 3489
599, 493, 494, 543, 542, 3393, 3493, 3492, 3491
600, 494, 249, 248, 543, 3395, 2850, 3494, 3493
601, 114, 495, 544, 115, 3396, 3496, 3495, 2714
602, 495, 496, 545, 544, 3398, 3498, 3497, 3496
603, 496, 497, 546, 545, 3400, 3500, 3499, 3498
604, 497, 498, 547, 546, 3402, 3502, 3501, 3500
605, 498, 499, 548, 547, 3404, 3504, 3503, 3502
606, 499, 500, 549, 548, 3406, 3506, 3505, 3504
607, 500, 501, 550, 549, 3408, 3508, 3507, 3506
608, 501, 502, 551, 550, 3410, 3510, 3509, 3508
609, 502, 503, 552, 551, 3412, 3512, 3511, 3510
610, 503, 504, 553, 552, 3414, 3514, 3513, 3512
611, 504, 505, 554, 553, 3416, 3516, 3515, 3514
612, 505, 506, 555, 554, 3418, 3518, 3517, 3516
613, 506, 507, 556, 555, 3420, 3520, 3519, 3518
614, 507, 508, 557, 556, 3422, 3522, 3521, 3520
615, 508, 509, 558, 557, 3424, 3524, 3523, 3522
616, 509, 510, 559, 558, 3426, 3526, 3525, 3524
617, 510, 511, 560, 559, 3428, 3528, 3527, 3526
618, 511, 512, 561, 560, 3430, 3530, 3529, 3528
619, 512, 513, 562, 561, 3432, 3532, 3531, 3530
620, 513, 514, 563, 562, 3434, 3534, 3533, 3532
621, 514, 515, 564, 563, 3436, 3536, 3535, 3534
622, 515, 516, 565, 564, 3438, 3538, 3537, 3536
623, 516, 517, 566, 565, 3440, 3540, 3539, 3538
624, 517, 518, 567, 566, 3442, 3542, 3541, 3540
625, 518, 519, 568, 567, 3444, 3544, 3543, 3542
626, 519, 520, 569, 568, 3446, 3546, 3545, 3544
627, 520, 521, 570, 569, 3448, 3548, 3547, 3546
628, 521, 522, 571, 570, 3450, 3550, 3549, 3548
629, 522, 523, 572, 571, 3452, 3552, 3551, 3550
630, 523, 524, 573, 572, 3454, 3554, 3553, 3552
631, 524, 525, 574, 573, 3456, 3556, 3555, 3554
632, 525, 526, 575, 574, 3458, 3558, 3557, 3556
633, 526, 527, 576, 575, 3460, 3560, 3559, 3558
634, 527, 528, 577, 576, 3462, 3562, 3561, 3560
635, 528, 529, 578, 577, 3464, 3564, 3563, 3562
636, 529, 530, 579, 578, 3466, 3566, 3565, 3564
637, 530, 531, 580, 579, 3468, 3568, 3567, 3566
638, 531, 532, 581, 580, 3470, 3570, 3569, 3568
639, 532, 533, 582, 581, 3472, 3572, 3571, 3570
640, 533, 534, 583, 582, 3474, 3574, 3573, 3572
641, 534, 535, 584, 583, 3476, 3576, 3575, 3574
642, 535, 536, 585, 584, 3478, 3578, 3577, 3576
643, 536, 537, 586, 585, 3480, 3580, 3579, 3578
644, 537, 538, 587, 586, 3482, 3582, 3581, 3580
645, 538, 539, 588, 587, 3484, 3584, 3583, 3582
646, 539, 540, 589, 588, 3486, 3586, 3585, 3584
647, 540, 541, 590, 589, 3488, 3588, 3587, 3586
648, 541, 542, 591, 590, 3490, 3590, 3589, 3588
649, 542, 543, 592, 591, 3492, 3592, 3591, 3590
650, 543, 248, 247, 592, 3494, 2849, 3593, 3592
651, 115, 544, 593, 116, 3495, 3595, 3594, 2715
652, 544, 545, 594, 593, 3497, 3597, 3596, 3595
653, 545, 546, 595, 594, 3499, 3599, 3598, 3597
654, 546, 547, 596, 595, 3501, 3601, 3600, 3599
655, 547, 548, 597, 596, 3503, 3603, 3602, 3601
656, 548, 549, 598, 597, 3505, 3605, 3604, 3603
657, 549, 550, 599, 598, 3507, 3607, 3606, 3605
658, 550, 551, 600, 599, 3509, 3609, 3608, 3607
659, 551, 552, 601, 600, 3511, 3611, 3610, 3609
660, 552, 553, 602, 601, 3513, 3613, 3612, 3611
661, 553, 554, 603, 602, 3515, 3615, 3614, 3613
662, 554, 555, 604, 603, 3517, 3617, 3616, 3615
663, 555, 556, 605, 604, 3519, 3619, 3618, 3617
664, 556, 557, 606, 605, 3521, 3621, 3620, 3619
665, 557, 558, 607, 606, 3523, 3623, 3622, 3621
666, 558, 559, 608, 607, 3525, 3625, 3624, 3623
667, 559, 560, 609, 608, 3527, 3627, 3626, 3625
668, 560, 561, 610, 609, 3529, 3629, 3628, 3627
669, 561, 562, 611, 610, 3531, 3631, 3630, 3629
670, 562, 563, 612, 611, 3533, 3633, 3632, 3631
671, 563, 564, 613, 612, 3535, 3635, 3634, 3633
672, 564, 565, 614, 613, 3537, 3637, 3636, 3635
673, 565, 566, 615, 614, 3539, 3639, 3638, 3637
674, 566, 567, 616, 615, 3541, 3641, 3640, 3639
675, 567, 568, 617, 616, 3543, 3643, 3642, 3641
676, 568, 569, 618, 617, 3545, 3645, 3644, 3643
677, 569, 570, 619, 618, 3547, 3647, 3646, 3645
678, 570, 571, 620, 619, 3549, 3649, 3648, 3647
679, 571, 572, 621, 620, 3551, 3651, 3650, 3649
680, 572, 573, 622, 621, 3553, 3653, 3652, 3651
681, 573, 574, 623, 622, 3555, 3655, 3654, 3653
682, 574, 575, 624, 623, 3557, 3657, 3656, 3655
683, 575, 576, 625, 624, 3559, 3659, 3658, 3657
684, 576, 577, 626, 625, 3561, 3661, 3660, 3659
685, 577, 578, 627, 626, 3563, 3663, 3662, 3661
686, 578, 579, 628, 627, 3565, 3665, 3664, 3663
687, 579, 580, 629, 628, 3567, 3667, 3666, 3665
688, 580, 581, 630, 629, 3569, 3669, 3668, 3667
689, 581, 582, 631, 630, 3571, 3671, 3670, 3669
690, 582, 583, 632, 631, 3573, 3673, 3672, 3671
691, 583, 584, 633, 632, 3575, 3675, 3674, 3673
692, 584, 585, 634, 633, 3577, 3677, 3676, 3675
693, 585, 586, 635, 634, 3579, 3679, 3678, 3677
694, 586, 587, 636, 635, 3581, 3681, 3680, 3679
695, 587, 588, 637, 636, 3583, 3683, 3682, 3681
696, 588, 589, 638, 637, 3585, 3685, 3684, 3683
697, 589, 590, 639, 638, 3587, 3687, 3686, 3685
698, 590, 591, 640, 639, 3589, 3689, 3688, 3687
699, 591, 592, 641, 640, 3591, 3691, 3690, 3689
700, 592, 247, 246, 641, 3593, 2848, 3692, 3691
701, 116, 593, 642, 117, 3594, 3694, 3693, 2716
702, 593, 594, 643, 642, 3596, 3696, 3695, 3694
703, 594, 595, 644, 643, 3598, 3698, 3697, 3696
704, 595, 596, 645, 644, 3600, 3700, 3699, 3698
705, 596, 597, 646, 645, 3602, 3702, 3701, 3700
706, 597, 598, 647, 646, 3604, 3704, 3703, 3702
707, 598, 599, 648, 647, 3606, 3706, 3705, 3704
708, 599, 600, 649, 648, 3608, 3708, 3707, 3706
709, 600, 601, 650, 649, 3610, 3710, 3709, 3708
710, 601, 602, 651, 650, 3612, 3712, 3711, 3710
711, 602, 603, 652, 651, 3614, 3714, 3713, 3712
712, 603, 604, 653, 652, 3616, 3716, 3715, 3714
713, 604, 605, 654, 653, 3618, 3718, 3717, 3716
714, 605, 606, 655, 654, 3620, 3720, 3719, 3718
715, 606, 607, 656, 655, 3622, 3722, 3721, 3720
716, 607, 608, 657, 656, 3624, 3724, 3723, 3722
717, 608, 609, 658, 657, 3626, 3726, 3725, 3724
718, 609, 610, 659, 658, 3628, 3728, 3727, 3726
719, 610, 611, 660, 659, 3630, 3730, 3729, 3728
720, 611, 612, 661, 660, 3632, 3732, 3731, 3730
721, 612, 613, 662, 661, 3634, 3734, 3733, 3732
722, 613, 614, 663, 662, 3636, 3736, 3735, 3734
723, 614, 615, 664, 663, 3638, 3738, 3737, 3736
724, 615, 616, 665, 664, 3640, 3740, 3739, 3738
725, 616, 617, 666, 665, 3642, 3742, 3741, 3740
726, 617, 618, 667, 666, 3644, 3744, 3743, 3742
727, 618, 619, 668, 667, 3646, 3746, 3745, 3744
728, 619, 620, 669, 668, 3648, 3748, 3747, 3746
729, 620, 621, 670, 669, 3650, 3750, 3749, 3748
730, 621, 622, 671, 670, 3652, 3752, 3751, 3750
731, 622, 623, 672, 671, 3654, 3754, 3753, 3752
732, 623, 624, 673, 672, 3656, 3756, 3755, 3754
733, 624, 625, 674, 673, 3658, 3758, 3757, 3756
734, 625, 626, 675, 674, 3660, 3760, 3759, 3758
735, 626, 627, 676, 675, 3662, 3762, 3761, 3760
736, 627, 628, 677, 676, 3664, 3764, 3763, 3762
737, 628, 629, 678, 677, 3666, 3766, 3765, 3764
738, 629, 630, 679, 678, 3668, 3768, 3767, 3766
739, 630, 631, 680, 679, 3670, 3770, 3769, 3768
740, 631, 632, 681, 680, 3672, 3772, 3771, 3770
741, 632, 633, 682, 681, 3674, 3774, 3773, 3772
742, 633, 634, 683, 682, 3676, 3776, 3775, 3774
743, 634, 635, 684, 683, 3678, 3778, 3777, 3776
744, 635, 636, 685, 684, 3680, 3780, 3779, 3778
745, 636, 637, 686, 685, 3682, 3782, 3781, 3780
746, 637, 638, 687, 686, 3684, 3784, 3783, 3782
747, 638, 639, 688, 687, 3686, 3786, 3785, 3784
748, 639, 640, 689, 688, 3688, 3788, 3787, 3786
749, 640, 641, 690, 689, 3690, 3790, 3789, 3788
750, 641, 246, 245, 690, 3692, 2847, 3791, 3790
751, 117, 642, 691, 118, 3693, 3793, 3792, 2717
752, 642, 643, 692, 691, 3695, 3795, 3794, 3793
753, 643, 644, 693, 692, 3697, 3797, 3796, 3795
754, 644, 645, 694, 693, 3699, 3799, 3798, 3797
755, 645, 646, 695, 694, 3701, 3801, 3800, 3799
756, 646, 647, 696, 695, 3703, 3803, 3802, 3801
757, 647, 648, 697, 696, 3705, 3805, 3804, 3803
758, 648, 649, 698, 697, 3707, 3807, 3806, 3805
759, 649, 650, 699, 698, 3709, 3809, 3808, 3807
760, 650, 651, 700, 699, 3711, 3811, 3810, 3809
761, 651, 652, 701, 700, 3713, 3813, 3812, 3811
762, 652, 653, 702, 701, 3715, 3815, 3814, 3813
763, 653, 654, 703, 702, 3717, 3817, 3816, 3815
764, 654, 655, 704, 703, 3719, 3819, 3818, 3817
765, 655, 656, 705, 704, 3721, 3821, 3820, 3819
766, 656, 657, 706, 705, 3723, 3823, 3822, 3821
767, 657, 658, 707, 706, 3725, 3825, 3824, 3823
768, 658, 659, 708, 707, 3727, 3827, 3826, 3825
769, 659, 660, 709, 708, 3729, 3829, 3828, 3827
770, 660, 661, 710, 709, 3731, 3831, 3830, 3829
771, 661, 662, 711, 710, 3733, 3833, 3832, 3831
772, 662, 663, 712, 711, 3735, 3835, 3834, 3833
773, 663, 664, 713, 712, 3737, 3837, 3836, 3835
774, 664, 665, 714, 713, 3739, 3839, 3838, 3837
775, 665, 666, 715, 714, 3741, 3841, 3840, 3839
776, 666, 667, 716, 715, 3743, 3843, 3842, 3841
777, 667, 668, 717, 716, 3745, 3845, 3844, 3843
778, 668, 669, 718, 717, 3747, 3847, 3846, 3845
779, 669, 670, 719, 718, 3749, 3849, 3848, 3847
780, 670, 671, 720, 719, 3751, 3851, 3850, 3849
781, 671, 672, 721, 720, 3753, 3853, 3852, 3851
782, 672, 673, 722, 721, 3755, 3855, 3854, 3853
783, 673, 674, 723, 722, 3757, 3857, 3856, 3855
784, 674, 675, 724, 723, 3759, 3859, 3858, 3857
785, 675, 676, 725, 724, 3761, 3861, 3860, 3859
786, 676, 677, 726, 725, 3763, 3863, 3862, 3861
787, 677, 678, 727, 726, 3765, 3865, 3864, 3863
788, 678, 679, 728, 727, 3767, 3867, 3866, 3865
789, 679, 680, 729, 728, 3769, 3869, 3868, 3867
790, 680, 681, 730, 729, 3771, 3871, 3870, 3869
791, 681, 682, 731, 730, 3773, 3873, 3872, 3871
792, 682, 683, 732, 731, 3775, 3875, 3874, 3873
793, 683, 684, 733, 732, 3777, 3877, 3876, 3875
794, 684, 685, 734, 733, 3779, 3879, 3878, 3877
795, 685, 686, 735, 734, 3781, 3881, 3880, 3879
796, 686, 687, 736, 735, 3783, 3883, 3882, 3881
797, 687, 688, 737, 736, 3785, 3885, 3884, 3883
798, 688, 689, 738, 737, 3787, 3887, 3886, 3885
799, 689, 690, 739, 738, 3789, 3889, 3888, 3887
800, 690, 245, 244, 739, 3791, 2846, 3890, 3889
801, 118, 691, 740, 119, 3792, 3892, 3891, 2718
802, 691, 692, 741, 740, 3794, 3894, 3893, 3892
803, 692, 693, 742, 741, 3796, 3896, 3895, 3894
804, 693, 694, 743, 742, 3798, 3898, 3897, 3896
805, 694, 695, 744, 743, 3800, 3900, 3899, 3898
806, 695, 696, 745, 744, 3802, 3902, 3901, 3900
807, 696, 697, 746, 745, 3804, 3904, 3903, 3902
808, 697, 698, 747, 746, 3806, 3906, 3905, 3904
809, 698, 699, 748, 747, 3808, 3908, 3907, 3906
810, 699, 700, 749, 748, 3810, 3910, 3909, 3908
811, 700, 701, 750, 749, 3812, 3912, 3911, 3910
812, 701, 702, 751, 750, 3814, 3914, 3913, 3912
813, 702, 703, 752, 751, 3816, 3916, 3915, 3914
814, 703, 704, 753, 752, 3818, 3918, 3917, 3916
815, 704, 705, 754, 753, 3820, 3920, 3919, 3918
816, 705, 706, 755, 754, 3822, 3922, 3921, 3920
817, 706, 707, 756, 755, 3824, 3924, 3923, 3922
818, 707, 708, 757, 756, 3826, 3926, 3925, 3924
819, 708, 709, 758, 757, 3828, 3928, 3927, 3926
820, 709, 710, 759, 758, 3830, 3930, 3929, 3928
821, 710, 711, 760, 759, 3832, 3932, 3931, 3930
822, 711, 712, 761, 760, 3834, 3934, 3933, 3932
823, 712, 713, 762, 761, 3836, 3936, 3935, 3934
824, 713, 714, 763, 762, 3838, 3938, 3937, 3936
825, 714, 715, 764, 763, 3840, 3940, 3939, 3938
826, 715, 716, 765, 764, 3842, 3942, 3941, 3940
827, 716, 717, 766, 765, 3844, 3944, 3943, 3942
828, 717, 718, 767, 766, 3846, 3946, 3945, 3944
829, 718, 719, 768, 767, 3848, 3948, 3947, 3946
830, 719, 720, 769, 768, 3850, 3950, 3949, 3948
831, 720, 721, 770, 769, 3852, 3952, 3951, 3950
832, 721, 722, 771, 770, 3854, 3954, 3953, 3952
833, 722, 723, 772, 771, 3856, 3956, 3955, 3954
834, 723, 724, 773, 772, 3858, 3958, 3957, 3956
835, 724, 725, 774, 773, 3860, 3960, 3959, 3958
836, 725, 726, 775, 774, 3862, 3962, 3961, 3960
837, 726, 727, 776, 775, 3864, 3964, 3963, 3962
838, 727, 728, 777, 776, 3866, 3966, 3965, 3964
839, 728, 729, 778, 777, 3868, 3968, 3967, 3966
840, 729, 730, 779, 778, 3870, 3970, 3969, 3968
841, 730, 731, 780, 779, 3872, 3972, 3971, 3970
842, 731, 732, 781, 780, 3874, 3974, 3973, 3972
843, 732, 733, 782, 781, 3876, 3976, 3975, 3974
844, 733, 734, 783, 782, 3878, 3978, 3977, 3976
845, 734, 735, 784, 783, 3880, 3980, 3979, 3978
846, 735, 736, 785, 784, 3882, 3982, 3981, 3980
847, 736, 737, 786, 785, 3884, 3984, 3983, 3982
848, 737, 738, 787, 786, 3886, 3986, 3985, 3984
849, 738, 739, 788, 787, 3888, 3988, 3987, 3986
850, 739, 244, 243, 788, 3890, 2845, 3989, 3988
851, 119, 740, 789, 120, 3891, 3991, 3990, 2719
852, 740, 741, 790, 789, 3893, 3993, 3992, 3991
853, 741, 742, 791, 790, 3895, 3995, 3994, 3993
854, 742, 743, 792, 791, 3897, 3997, 3996, 3995
855, 743, 744, 793, 792, 3899, 3999, 3998, 3997
856, 744, 745, 794, 793, 3901, 4001, 4000, 3999
857, 745, 746, 795, 794, 3903, 4003, 4002, 4001
858, 746, 747, 796, 795, 3905, 4005, 4004, 4003
859, 747, 748, 797, 796, 3907, 4007, 4006, 4005
860, 748, 749, 798, 797, 3909, 4009, 4008, 4007
861, 749, 750, 799, 798, 3911, 4011, 4010, 4009
862, 750, 751, 800, 799, 3913, 4013, 4012, 4011
863, 751, 752, 801, 800, 3915, 4015, 4014, 4013
864, 752, 753, 802, 801, 3917, 4017, 4016, 4015
865, 753, 754, 803, 802, 3919, 4019, 4018, 4017
866, 754, 755, 804, 803, 3921, 4021, 4020, 4019
867, 755, 756, 805, 804, 3923, 4023, 4022, 4021
868, 756, 757, 806, 805, 3925, 4025, 4024, 4023
869, 757, 758, 807, 806, 3927, 4027, 4026, 4025
870, 758, 759, 808, 807, 3929, 4029, 4028, 4027
871, 759, 760, 809, 808, 3931, 4031, 4030, 4029
872, 760, 761, 810, 809, 3933, 4033, 4032, 4031
873, 761, 762, 811, 810, 3935, 4035, 4034, 4033
874, 762, 763, 812, 811, 3937, 4037, 4036, 4035
875, 763, 764, 813, 812, 3939, 4039, 4038, 4037
876, 764, 765, 814, 813, 3941, 4041, 4040, 4039
877, 765, 766, 815, 814, 3943, 4043, 4042, 4041
878, 766, 767, 816, 815, 3945, 4045, 4044, 4043
879, 767, 768, 817, 816, 3947, 4047, 4046, 4045
880, 768, 769, 818, 817, 3949, 4049, 4048, 4047
881, 769, 770, 819, 818, 3951, 4051, 4050, 4049
882, 770, 771, 820, 819, 3953, 4053, 4052, 4051
883, 771, 772, 821, 820, 3955, 4055, 4054, 4053
884, 772, 773, 822, 821, 3957, 4057, 4056, 4055
885, 773, 774, 823, 822, 3959, 4059, 4058, 4057
886, 774, 775, 824, 823, 3961, 4061, 4060, 4059
887, 775, 776, 825, 824, 3963, 4063, 4062, 4061
888, 776, 777, 826, 825, 3965, 4065, 4064, 4063
889, 777, 778, 827, 826, 3967, 4067, 4066, 4065
890, 778, 779, 828, 827, 3969, 4069, 4068, 4067
891, 779, 780, 829, 828, 3971, 4071, 4070, 4069
892, 780, 781, 830, 829, 3973, 4073, 4072, 4071
893, 781, 782, 831, 830, 3975, 4075, 4074, 4073
894, 782, 783, 832, 831, 3977, 4077, 4076, 4075
895, 783, 784, 833, 832, 3979, 4079, 4078, 4077
896, 784, 785, 834, 833, 3981, 4081, 4080, 4079
897, 785, 786, 835, 834, 3983, 4083, 4082, 4081
898, 786, 787, 836, 835, 3985, 4085, 4084, 4083
899, 787, 788, 837, 836, 3987, 4087, 4086, 4085
900, 788, 243, 242, 837, 3989, 2844, 4088, 4087
901, 120, 789, 838, 121, 3990, 4090, 4089, 2720
902, 789, 790, 839, 838, 3992, 4092, 4091, 4090
903, 790, 791, 840, 839, 3994, 4094, 4093, 4092
904, 791, 792, 841, 840, 3996, 4096, 4095, 4094
905, 792, 793, 842, 841, 3998, 4098, 4097, 4096
906, 793, 794, 843, 842, 4000, 4100, 4099, 4098
907, 794, 795, 844, 843, 4002, 4102, 4101, 4100
908, 795, 796, 845, 844, 4004, 4104, 4103, 4102
909, 796, 797, 846, 845, 4006, 4106, 4105, 4104
910, 797, 798, 847, 846, 4008, 4108, 4107, 4106
911, 798, 799, 848, 847, 4010, 4110, 4109, 4108
912, 799, 800, 849, 848, 4012, 4112, 4111, 4110
913, 800, 801, 850, 849, 4014, 4114, 4113, 4112
914, 801, 802, 851, 850, 4016, 4116, 4115, 4114
915, 802, 803, 852, 851, 4018, 4118, 4117, 4116
916, 803, 804, 853, 852, 4020, 4120, 4119, 4118
917, 804, 805, 854, 853, 4022, 4122, 4121, 4120
918, 805, 806, 855, 854, 4024, 4124, 4123, 4122
919, 806, 807, 856, 855, 4026, 4126, 4125, 4124
920, 807, 808, 857, 856, 4028, 4128, 4127, 4126
921, 808, 809, 858, 857, 4030, 4130, 4129, 4128
922, 809, 810, 859, 858, 4032, 4132, 4131, 4130
923, 810, 811, 860, 859, 4034, 4134, 4133, 4132
924, 811, 812, 861, 860, 4036, 4136, 4135, 4134
925, 812, 813, 862, 861, 4038, 4138, 4137, 4136
926, 813, 814, 863, 862, 4040, 4140, 4139, 4138
927, 814, 815, 864, 863, 4042, 4142, 4141, 4140
928, 815, 816, 865, 864, 4044, 4144, 4143, 4142
929, 816, 817, 866, 865, 4046, 4146, 4145, 4144
930, 817, 818, 867, 866, 4048, 4148, 4147, 4146
931, 818, 819, 868, 867, 4050, 4150, 4149, 4148
932, 819, 820, 869, 868, 4052, 4152, 4151, 4150
933, 820, 821, 870, 869, 4054, 4154, 4153, 4152
934, 821, 822, 871, 870, 4056, 4156, 4155, 4154
935, 822, 823, 872, 871, 4058, 4158, 4157, 4156
936, 823, 824, 873, 872, 4060, 4160, 4159, 4158
937, 824, 825, 874, 873, 4062, 4162, 4161, 4160
938, 825, 826, 875, 874, 4064, 4164, 4163, 4162
939, 826, 827, 876, 875, 4066, 4166, 4165, 4164
940, 827, 828, 877, 876, 4068, 4168, 4167, 4166
941, 828, 829, 878, 877, 4070, 4170, 4169, 4168
942, 829, 830, 879, 878, 4072, 4172, 4171, 4170
943, 830, 831, 880, 879, 4074, 4174, 4173, 4172
944, 831, 832, 881, 880, 4076, 4176, 4175, 4174
945, 832, 833, 882, 881, 4078, 4178, 4177, 4176
946, 833, 834, 883, 882, 4080, 4180, 4179, 4178
947, 834, 835, 884, 883, 4082, 4182, 4181, 4180
948, 835, 836, 885, 884, 4084, 4184, 4183, 4182
949, 836, 837, 886, 885, 4086, 4186, 4185, 4184
950, 837, 242, 241, 886, 4088, 2843, 4187, 4186
951, 121, 838, 887, 122, 4089, 4189, 4188, 2721
952, 838, 839, 888, 887, 4091, 4191, 4190, 4189
953, 839, 840, 889, 888, 4093, 4193, 4192, 4191
954, 840, 841, 890, 889, 4095, 4195, 4194, 4193
955, 841, 842, 891, 890, 4097, 4197, 4196, 4195
956, 842, 843, 892, 891, 4099, 4199, 4198, 4197
957, 843, 844, 893, 892, 4101, 4201, 4200, 4199
958, 844, 845, 894, 893, 4103, 4203, 4202, 4201
959, 845, 846, 895, 894, 4105, 4205, 4204, 4203
960, 846, 847, 896, 895, 4107, 4207, 4206, 4205
961, 847, 848, 897, 896, 4109, 4209, 4208, 4207
962, 848, 849, 898, 897, 4111, 4211, 4210, 4209
963, 849, 850, 899, 898, 4113, 4213, 4212, 4211
964, 850, 851, 900, 899, 4115, 4215, 4214, 4213
965, 851, 852, 901, 900, 4117, 4217, 4216, 4215
966, 852, 853, 902, 901, 4119, 4219, 4218, 4217
967, 853, 854, 903, 902, 4121, 4221, 4220, 4219
968, 854, 855, 904, 903, 4123, 4223, 4222, 4221
969, 855, 856, 905, 904, 4125, 4225, 4224, 4223
970, 856, 857, 906, 905, 4127, 4227, 4226, 4225
971, 857, 858, 907, 906, 4129, 4229, 4228, 4227
972, 858, 859, 908, 907, 4131, 4231, 4230, 4229
973, 859, 860, 909, 908, 4133, 4233, 4232, 4231
974, 860, 861, 910, 909, 4135, 4235, 4234, 4233
975, 861, 862, 911, 910, 4137, 4237, 4236, 4235
976, 862, 863, 912, 911, 4139, 4239, 4238, 4237
977, 863, 864, 913, 912, 4141, 4241, 4240, 4239
978, 864, 865, 914, 913, 4143, 4243, 4242, 4241
979, 865, 866, 915, 914, 4145, 4245, 4244, 4243
980, 866, 867, 916, 915, 4147, 4247, 4246, 4245
981, 867, 868, 917, 916, 4149, 4249, 4248, 4247
982, 868, 869, 918, 917, 4151, 4251, 4250, 4249
983, 869, 870, 919, 918, 4153, 4253, 4252, 4251
984, 870, 871, 920, 919, 4155, 4255, 4254, 4253
985, 871, 872, 921, 920, 4157, 4257, 4256, 4255
986, 872, 873, 922, 921, 4159, 4259, 4258, 4257
987, 873, 874, 923, 922, 4161, 4261, 4260, 4259
988, 874, 875, 924, 923, 4163, 4263, 4262, 4261
989, 875, 876, 925, 924, 4165, 4265, 4264, 4263
990, 876, 877, 926, 925, 4167, 4267, 4266, 4265
991, 877, 878, 927, 926, 4169, 4269, 4268, 4267
992, 878, 879, 928, 927, 4171, 4271, 4270, 4269
993, 879, 880, 929, 928, 4173, 4273, 4272, 4271
994, 880, 881, 930, 929, 4175, 4275, 4274, 4273
995, 881, 882, 931, 930, 4177, 4277, 4276, 4275
996, 882, 883, 932, 931, 4179, 4279, 4278, 4277
997, 883, 884, 933, 932, 4181, 4281, 4280, 4279
998, 884, 885, 934, 933, 4183, 4283, 4282, 4281
999, 885, 886, 935, 934, 4185, 4285, 4284, 4283
1000, 886, 241, 240, 935, 4187, 2842, 4286, 4285
1001, 122, 887, 936, 123, 4188, 4288, 4287, 2722
1002, 887, 888, 937, 936, 4190, 4290, 4289, 4288
1003, 888, 889, 938, 937, 4192, 4292, 4291, 4290
1004, 889, 890, 939, 938, 4194, 4294, 4293, 4292
1005, 890, 891, 940, 939, 4196, 4296, 4295, 4294
1006, 891, 892, 941, 940, 4198, 4298, 4297, 4296
1007, 892, 893, 942, 941, 4200, 4300, 4299, 4298
1008, 893, 894, 943, 942, 4202, 4302, 4301, 4300
1009, 894, 895, 944, 943, 4204, 4304, 4303, 4302
1010, 895, 896, 945, 944, 4206, 4306, 4305, 4304
1011, 896, 897, 946, 945, 4208, 4308, 4307, 4306
1012, 897, 898, 947, 946, 4210, 4310, 4309, 4308
1013, 898, 899, 948, 947, 4212, 4312, 4311, 4310
1014, 899, 900, 949, 948, 4214, 4314, 4313, 4312
1015, 900, 901, 950, 949, 4216, 4316, 4315, 4314
1016, 901, 902, 951, 950, 4218, 4318, 4317, 4316
1017, 902, 903, 952, 951, 4220, 4320, 4319, 4318
1018, 903, 904, 953, 952, 4222, 4322, 4321, 4320
1019, 904, 905, 954, 953, 4224, 4324, 4323, 4322
1020, 905, 906, 955, 954, 4226, 4326, 4325, 4324
1021, 906, 907, 956, 955, 4228, 4328, 4327, 4326
1022, 907, 908, 957, 956, 4230, 4330, 4329, 4328
1023, 908, 909, 958, 957, 4232, 4332, 4331, 4330
1024, 909, 910, 959, 958, 4234, 4334, 4333, 4332
1025, 910, 911, 960, 959, 4236, 4336, 4335, 4334
1026, 911, 912, 961, 960, 4238, 4338, 4337, 4336
1027, 912, 913, 962, 961, 4240, 4340, 4339, 4338
1028, 913, 914, 963, 962, 4242, 4342, 4341, 4340
1029, 914, 915, 964, 963, 4244, 4344, 4343, 4342
1030, 915, 916, 965, 964, 4246, 4346, 4345, 4344
1031, 916, 917, 966, 965, 4248, 4348, 4347, 4346
1032, 917, 918, 967, 966, 4250, 4350, 4349, 4348
1033, 918, 919, 968, 967, 4252, 4352, 4351, 4350
1034, 919, 920, 969, 968, 4254, 4354, 4353, 4352
1035, 920, 921, 970, 969, 4256, 4356, 4355, 4354
1036, 921, 922, 971, 970, 4258, 4358, 4357, 4356
1037, 922, 923, 972, 971, 4260, 4360, 4359, 4358
1038, 923, 924, 973, 972, 4262, 4362, 4361, 4360
1039, 924, 925, 974, 973, 4264, 4364, 4363, 4362
1040, 925, 926, 975, 974, 4266, 4366, 4365, 4364
1041, 926, 927, 976, 975, 4268, 4368, 4367, 4366
1042, 927, 928, 977, 976, 4270, 4370, 4369, 4368
1043, 928, 929, 978, 977, 4272, 4372, 4371, 4370
1044, 929, 930, 979, 978, 4274, 4374, 4373, 4372
1045, 930, 931, 980, 979, 4276, 4376, 4375, 4374
1046, 931, 932, 981, 980, 4278, 4378, 4377, 4376
1047, 932, 933, 982, 981, 4280, 4380, 4379, 4378
1048, 933, 934, 983, 982, 4282, 4382, 4381, 4380
1049, 934, 935, 984, 983, 4284, 4384, 4383, 4382
1050, 935, 240, 239, 984, 4286, 2841, 4385, 4384
1051, 123, 936, 985, 124, 4287, 4387, 4386, 2723
1052, 936, 937, 986, 985, 4289, 4389, 4388, 4387
1053, 937, 938, 987, 986, 4291, 4391, 4390, 4389
1054, 938, 939, 988, 987, 4293, 4393, 4392, 4391
1055, 939, 940, 989, 988, 4295, 4395, 4394, 4393
1056, 940, 941, 990, 989, 4297, 4397, 4396, 4395
1057, 941, 942, 991, 990, 4299, 4399, 4398, 4397
1058, 942, 943, 992, 991, 4301, 4401, 4400, 4399
1059, 943, 944, 993, 992, 4303, 4403, 4402, 4401
1060, 944, 945, 994, 993, 4305, 4405, 4404, 4403
1061, 945, 946, 995, 994, 4307, 4407, 4406, 4405
1062, 946, 947, 996, 995, 4309, 4409, 4408, 4407
1063, 947, 948, 997, 996, 4311, 4411, 4410, 4409
1064, 948, 949, 998, 997, 4313, 4413, 4412, 4411
1065, 949, 950, 999, 998, 4315, 4415, 4414, 4413
1066, 950, 951, 1000, 999, 4317, 4417, 4416, 4415
1067, 951, 952, 1001, 1000, 4319, 4419, 4418, 4417
1068, 952, 953, 1002, 1001, 4321, 4421, 4420, 4419
1069, 953, 954, 1003, 1002, 4323, 4423, 4422, 4421
1070, 954, 955, 1004, 1003, 4325, 4425, 4424, 4423
1071, 955, 956, 1005, 1004, 4327, 4427, 4426, 4425
1072, 956, 957, 1006, 1005, 4329, 4429, 4428, 4427
1073, 957, 958, 1007, 1006, 4331, 4431, 4430, 4429
1074, 958, 959, 1008, 1007, 4333, 4433, 4432, 4431
1075, 959, 960, 1009, 1008, 4335, 4435, 4434, 4433
1076, 960, 961, 1010, 1009, 4337, 4437, 4436, 4435
1077, 961, 962, 1011, 1010, 4339, 4439, 4438, 4437
1078, 962, 963, 1012, 1011, 4341, 4441, 4440, 4439
1079, 963, 964, 1013, 1012, 4343, 4443, 4442, 4441
1080, 964, 965, 1014, 1013, 4345, 4445, 4444, 4443
1081, 965, 966, 1015, 1014, 4347, 4447, 4446, 4445
1082, 966, 967, 1016, 1015, 4349, 4449, 4448, 4447
1083, 967, 968, 1017, 1016, 4351, 4451, 4450, 4449
1084, 968, 969, 1018, 1017, 4353, 4453, 4452, 4451
1085, 969, 970, 1019, 1018, 4355, 4455, 4454, 4453
1086, 970, 971, 1020, 1019, 4357, 4457, 4456, 4455
1087, 971, 972, 1021, 1020, 4359, 4459, 4458, 4457
1088, 972, 973, 1022, 1021, 4361, 4461, 4460, 4459
1089, 973, 974, 1023, 1022, 4363, 4463, 4462, 4461
1090, 974, 975, 1024, 1023, 4365, 4465, 4464, 4463
1091, 975, 976, 1025, 1024, 4367, 4467, 4466, 4465
1092, 976, 977, 1026, 1025, 4369, 4469, 4468, 4467
1093, 977, 978, 1027, 1026, 4371, 4471, 4470, 4469
1094, 978, 979, 1028, 1027, 4373, 4473, 4472, 4471
1095, 979, 980, 1029, 1028, 4375, 4475, 4474, 4473
1096, 980, 981, 1030, 1029, 4377, 4477, 4476, 4475
1097, 981, 982, 1031, 1030, 4379, 4479, 4478, 4477
1098, 982, 983, 1032, 1031, 4381, 4481, 4480, 4479
1099, 983, 984, 1033, 1032, 4383, 4483, 4482, 4481
1100, 984, 239, 238, 1033, 4385, 2840, 4484, 4483
1101, 124, 985, 1034, 125, 4386, 4486, 4485, 2724
1102, 985, 986, 1035, 1034, 4388, 4488, 4487, 4486
1103, 986, 987, 1036, 1035, 4390, 4490, 4489, 4488
1104, 987, 988, 1037, 1036, 4392, 4492, 4491, 4490
1105, 988, 989, 1038, 1037, 4394, 4494, 4493, 4492
1106, 989, 990, 1039, 1038, 4396, 4496, 4495, 4494
1107, 990, 991, 1040, 1039, 4398, 4498, 4497, 4496
1108, 991, 992, 1041, 1040, 4400, 4500, 4499, 4498
1109, 992, 993, 1042, 1041, 4402, 4502, 4501, 4500
1110, 993, 994, 1043, 1042, 4404, 4504, 4503, 4502
1111, 994, 995, 1044, 1043, 4406, 4506, 4505, 4504
1112, 995, 996, 1045, 1044, 4408, 4508, 4507, 4506
1113, 996, 997, 1046, 1045, 4410, 4510, 4509, 4508
1114, 997, 998, 1047, 1046, 4412, 4512, 4511, 4510
1115, 998, 999, 1048, 1047, 4414, 4514, 4513, 4512
1116, 999, 1000, 1049, 1048, 4416, 4516, 4515, 4514
1117, 1000, 1001, 1050, 1049, 4418, 4518, 4517, 4516
1118, 1001, 1002, 1051, 1050, 4420, 4520, 4519, 4518
1119, 1002, 1003, 1052, 1051, 4422, 4522, 4521, 4520
1120, 1003, 1004, 1053, 1052, 4424, 4524, 4523, 4522
1121, 1004, 1005, 1054, 1053, 4426, 4526, 4525, 4524
1122, 1005, 1006, 1055, 1054, 4428, 4528, 4527, 4526
1123, 1006, 1007, 1056, 1055, 4430, 4530, 4529, 4528
1124, 1007, 1008, 1057, 1056, 4432, 4532, 4531, 4530
1125, 1008, 1009, 1058, 1057, 4434, 4534, 4533, 4532
1126, 1009, 1010, 1059, 1058, 4436, 4536, 4535, 4534
1127, 1010, 1011, 1060, 1059, 4438, 4538, 4537, 4536
1128, 1011, 1012, 1061, 1060, 4440, 4540, 4539, 4538
1129, 1012, 1013, 1062, 1061, 4442, 4542, 4541, 4540
1130, 1013, 1014, 1063, 1062, 4444, 4544, 4543, 4542
1131, 1014, 1015, 1064, 1063, 4446, 4546, 4545, 4544
1132, 1015, 1016, 1065, 1064, 4448, 4548, 4547, 4546
1133, 1016, 1017, 1066, 1065, 4450, 4550, 4549, 4548
1134, 1017, 1018, 1067, 1066, 4452, 4552, 4551, 4550
1135, 1018, 1019, 1068, 1067, 4454, 4554, 4553, 4552
1136, 1019, 1020, 1069, 1068, 4456, 4556, 4555, 4554
1137, 1020, 1021, 1070, 1069, 4458, 4558, 4557, 4556
1138, 1021, 1022, 1071, 1070, 4460, 4560, 4559, 4558
1139, 1022, 1023, 1072, 1071, 4462, 4562, 4561, 4560
1140, 1023, 1024, 1073, 1072, 4464, 4564, 4563, 4562
1141, 1024, 1025, 1074, 1073, 4466, 4566, 4565, 4564
1142, 1025, 1026, 1075, 1074, 4468, 4568, 4567, 4566
1143, 1026, 1027, 1076, 1075, 4470, 4570, 4569, 4568
1144, 1027, 1028, 1077, 1076, 4472, 4572, 4571, 4570
1145, 1028, 1029, 1078, 1077, 4474, 4574, 4573, 4572
1146, 1029, 1030, 1079, 1078, 4476, 4576, 4575, 4574
1147, 1030, 1031, 1080, 1079, 4478, 4578, 4577, 4576
1148, 1031, 1032, 1081, 1080, 4480, 4580, 4579, 4578
1149, 1032, 1033, 1082, 1081, 4482, 4582, 4581, 4580
1150, 1033, 238, 237, 1082, 4484, 2839, 4583, 4582
1151, 125, 1034, 1083, 126, 4485, 4585, 4584, 2725
1152, 1034, 1035, 1084, 1083, 4487, 4587, 4586, 4585
1153, 1035, 1036, 1085, 1084, 4489, 4589, 4588, 4587
1154, 1036, 1037, 1086, 1085, 4491, 4591, 4590, 4589
1155, 1037, 1038, 1087, 1086, 4493, 4593, 4592, 4591
1156, 1038, 1039, 1088, 1087, 4495, 4595, 4594, 4593
1157, 1039, 1040, 1089, 1088, 4497, 4597, 4596, 4595
1158, 1040, 1041, 1090, 1089, 4499, 4599, 4598, 4597
1159, 1041, 1042, 1091, 1090, 4501, 4601, 4600, 4599
1160, 1042, 1043, 1092, 1091, 4503, 4603, 4602, 4601
1161, 1043, 1044, 1093, 1092, 4505, 4605, 4604, 4603
1162, 1044, 1045, 1094, 1093, 4507, 4607, 4606, 4605
1163, 1045, 1046, 1095, 1094, 4509, 4609, 4608, 4607
1164, 1046, 1047, 1096, 1095, 4511, 4611, 4610, 4609
1165, 1047, 1048, 1097, 1096, 4513, 4613, 4612, 4611
1166, 1048, 1049, 1098, 1097, 4515, 4615, 4614, 4613
1167, 1049, 1050, 1099, 1098, 4517, 4617, 4616, 4615
1168, 1050, 1051, 1100, 1099, 4519, 4619, 4618, 4617
1169, 1051, 1052, 1101, 1100, 4521, 4621, 4620, 4619
1170, 1052, 1053, 1102, 1101, 4523, 4623, 4622, 4621
1171, 1053, 1054, 1103, 1102, 4525, 4625, 4624, 4623
1172, 1054, 1055, 1104, 1103, 4527, 4627, 4626, 4625
1173, 1055, 1056, 1105, 1104, 4529, 4629, 4628, 4627
1174, 1056, 1057, 1106, 1105, 4531, 4631, 4630, 4629
1175, 1057, 1058, 1107, 1106, 4533, 4633, 4632, 4631
1176, 1058, 1059, 1108, 1107, 4535, 4635, 4634, 4633
1177, 1059, 1060, 1109, 1108, 4537, 4637, 4636, 4635
1178, 1060, 1061, 1110, 1109, 4539, 4639, 4638, 4637
1179, 1061, 1062, 1111, 1110, 4541, 4641, 4640, 4639
1180, 1062, 1063, 1112, 1111, 4543, 4643, 4642, 4641
1181, 1063, 1064, 1113, 1112, 4545, 4645, 4644, 4643
1182, 1064, 1065, 1114, 1113, 4547, 4647, 4646, 4645
1183, 1065, 1066, 1115, 1114, 4549, 4649, 4648, 4647
1184, 1066, 1067, 1116, 1115, 4551, 4651, 4650, 4649
1185, 1067, 1068, 1117, 1116, 4553, 4653, 4652, 4651
1186, 1068, 1069, 1118, 1117, 4555, 4655, 4654, 4653
1187, 1069, 1070, 1119, 1118, 4557, 4657, 4656, 4655
1188, 1070, 1071, 1120, 1119, 4559, 4659, 4658, 4657
1189, 1071, 1072, 1121, 1120, 4561, 4661, 4660, 4659
1190, 1072, 1073, 1122, 1121, 4563, 4663, 4662, 4661
1191, 1073, 1074, 1123, 1122, 4565, 4665, 4664, 4663
1192, 1074, 1075, 1124, 1123, 4567, 4667, 4666, 4665
1193, 1075, 1076, 1125, 1124, 4569, 4669, 4668, 4667
1194, 1076, 1077, 1126, 1125, 4571, 4671, 4670, 4669
1195, 1077, 1078, 1127, 1126, 4573, 4673, 4672, 4671
1196, 1078, 1079, 1128, 1127, 4575, 4675, 4674, 4673
1197, 1079, 1080, 1129, 1128, 4577, 4677, 4676, 4675
1198, 1080, 1081, 1130, 1129, 4579, 4679, 4678, 4677
1199, 1081, 1082, 1131, 1130, 4581, 4681, 4680, 4679
1200, 1082, 237, 236, 1131, 4583, 2838, 4682, 4681
1201, 126, 1083, 1132, 127, 4584, 4684, 4683, 2726
1202, 1083, 1084, 1133, 1132, 4586, 4686, 4685, 4684
1203, 1084, 1085, 1134, 1133, 4588, 4688, 4687, 4686
1204, 1085, 1086, 1135, 1134, 4590, 4690, 4689, 4688
1205, 1086, 1087, 1136, 1135, 4592, 4692, 4691, 4690
1206, 1087, 1088, 1137, 1136, 4594, 4694, 4693, 4692
1207, 1088, 1089, 1138, 1137, 4596, 4696, 4695, 4694
1208, 1089, 1090, 1139, 1138, 4598, 4698, 4697, 4696
1209, 1090, 1091, 1140, 1139, 4600, 4700, 4699, 4698
1210, 1091, 1092, 1141, 1140, 4602, 4702, 4701, 4700
1211, 1092, 1093, 1142, 1141, 4604, 4704, 4703, 4702
1212, 1093, 1094, 1143, 1142, 4606, 4706, 4705, 4704
1213, 1094, 1095, 1144, 1143, 4608, 4708, 4707, 4706
1214, 1095, 1096, 1145, 1144, 4610, 4710, 4709, 4708
1215, 1096, 1097, 1146, 1145, 4612, 4712, 4711, 4710
1216, 1097, 1098, 1147, 1146, 4614, 4714, 4713, 4712
1217, 1098, 1099, 1148, 1147, 4616, 4716, 4715, 4714
1218, 1099, 1100, 1149, 1148, 4618, 4718, 4717, 4716
1219, 1100, 1101, 1150, 1149, 4620, 4720, 4719, 4718
1220, 1101, 1102, 1151, 1150, 4622, 4722, 4721, 4720
1221, 1102, 1103, 1152, 1151, 4624, 4724, 4723, 4722
1222, 1103, 1104, 1153, 1152, 4626, 4726, 4725, 4724
1223, 1104, 1105, 1154, 1153, 4628, 4728, 4727, 4726
1224, 1105, 1106, 1155, 1154, 4630, 4730, 4729, 4728
1225, 1106, 1107, 1156, 1155, 4632, 4732, 4731, 4730
1226, 1107, 1108, 1157, 1156, 4634, 4734, 4733, 4732
1227, 1108, 1109, 1158, 1157, 4636, 4736, 4735, 4734
1228, 1109, 1110, 1159, 1158, 4638, 4738, 4737, 4736
1229, 1110, 1111, 1160, 1159, 4640, 4740, 4739, 4738
1230, 1111, 1112, 1161, 1160, 4642, 4742, 4741, 4740
1231, 1112, 1113, 1162, 1161, 4644, 4744, 4743, 4742
1232, 1113, 1114, 1163, 1162, 4646, 4746, 4745, 4744
1233, 1114, 1115, 1164, 1163, 4648, 4748, 4747, 4746
1234, 1115, 1116, 1165, 1164, 4650, 4750, 4749, 4748
1235, 1116, 1117, 1166, 1165, 4652, 4752, 4751, 4750
1236, 1117, 1118, 1167, 1166, 4654, 4754, 4753, 4752
1237, 1118, 1119, 1168, 1167, 4656, 4756, 4755, 4754
1238, 1119, 1120, 1169, 1168, 4658, 4758, 4757, 4756
1239, 1120, 1121, 1170, 1169, 4660, 4760, 4759, 4758
1240, 1121, 1122, 1171, 1170, 4662, 4762, 4761, 4760
1241, 1122, 1123, 1172, 1171, 4664, 4764, 4763, 4762
1242, 1123, 1124, 1173, 1172, 4666, 4766, 4765, 4764
1243, 1124, 1125, 1174, 1173, 4668, 4768, 4767, 4766
1244, 1125, 1126, 1175, 1174, 4670, 4770, 4769, 4768
1245, 1126, 1127, 1176, 1175, 4672, 4772, 4771, 4770
1246, 1127, 1128, 1177, 1176, 4674, 4774, 4773, 4772
1247, 1128, 1129, 1178, 1177, 4676, 4776, 4775, 4774
1248, 1129, 1130, 1179, 1178, 4678, 4778, 4777, 4776
1249, 1130, 1131, 1180, 1179, 4680, 4780, 4779, 4778
1250, 1131, 236, 235, 1180, 4682, 2837, 4781, 4780
1251, 127, 1132, 1181, 128, 4683, 4783, 4782, 2727
1252, 1132, 1133, 1182, 1181, 4685, 4785, 4784, 4783
1253, 1133, 1134, 1183, 1182, 4687, 4787, 4786, 4785
1254, 1134, 1135, 1184, 1183, 4689, 4789, 4788, 4787
1255, 1135, 1136, 1185, 1184, 4691, 4791, 4790, 4789
1256, 1136, 1137, 1186, 1185, 4693, 4793, 4792, 4791
1257, 1137, 1138, 1187, 1186, 4695, 4795, 4794, 4793
1258, 1138, 1139, 1188, 1187, 4697, 4797, 4796, 4795
1259, 1139, 1140, 1189, 1188, 4699, 4799, 4798, 4797
1260, 1140, 1141, 1190, 1189, 4701, 4801, 4800, 4799
1261, 1141, 1142, 1191, 1190, 4703, 4803, 4802, 4801
1262, 1142, 1143, 1192, 1191, 4705, 4805, 4804, 4803
1263, 1143, 1144, 1193, 1192, 4707, 4807, 4806, 4805
1264, 1144, 1145, 1194, 1193, 4709, 4809, 4808, 4807
1265, 1145, 1146, 1195, 1194, 4711, 4811, 4810, 4809
1266, 1146, 1147, 1196, 1195, 4713, 4813, 4812, 4811
1267, 1147, 1148, 1197, 1196, 4715, 4815, 4814, 4813
1268, 1148, 1149, 1198, 1197, 4717, 4817, 4816, 4815
1269, 1149, 1150, 1199, 1198, 4719, 4819, 4818, 4817
1270, 1150, 1151, 1200, 1199, 4721, 4821, 4820, 4819
1271, 1151, 1152, 1201, 1200, 4723, 4823, 4822, 4821
1272, 1152, 1153, 1202, 1201, 4725, 4825, 4824, 4823
1273, 1153, 1154, 1203, 1202, 4727, 4827, 4826, 4825
1274, 1154, 1155, 1204, 1203, 4729, 4829, 4828, 4827
1275, 1155, 1156, 1205, 1204, 4731, 4831, 4830, 4829
1276, 1156, 1157, 1206, 1205, 4733, 4833, 4832, 4831
1277, 1157, 1158, 1207, 1206, 4735, 4835, 4834, 4833
1278, 1158, 1159, 1208, 1207, 4737, 4837, 4836, 4835
1279, 1159, 1160, 1209, 1208, 4739, 4839, 4838, 4837
1280, 1160, 1161, 1210, 1209, 4741, 4841, 4840, 4839
1281, 1161, 1162, 1211, 1210, 4743, 4843, 4842, 4841
1282, 1162, 1163, 1212, 1211, 4745, 4845, 4844, 4843
1283, 1163, 1164, 1213, 1212, 4747, 4847, 4846, 4845
1284, 1164, 1165, 1214, 1213, 4749, 4849, 4848, 4847
1285, 1165, 1166, 1215, 1214, 4751, 4851, 4850, 4849
1286, 1166, 1167, 1216, 1215, 4753, 4853, 4852, 4851
1287, 1167, 1168, 1217, 1216, 4755, 4855, 4854, 4853
1288, 1168, 1169, 1218, 1217, 4757, 4857, 4856, 4855
1289, 1169, 1170, 1219, 1218, 4759, 4859, 4858, 4857
1290, 1170, 1171, 1220, 1219, 4761, 4861, 4860, 4859
1291, 1171, 1172, 1221, 1220, 4763, 4863, 4862, 4861
1292, 1172, 1173, 1222, 1221, 4765, 4865, 4864, 4863
1293, 1173, 1174, 1223, 1222, 4767, 4867, 4866, 4865
1294, 1174, 1175, 1224, 1223, 4769, 4869, 4868, 4867
1295, 1175, 1176, 1225, 1224, 4771, 4871, 4870, 4869
1296, 1176, 1177, 1226, 1225, 4773, 4873, 4872, 4871
1297, 1177, 1178, 1227, 1226, 4775, 4875, 4874, 4873
1298, 1178, 1179, 1228, 1227, 4777, 4877, 4876, 4875
1299, 1179, 1180, 1229, 1228, 4779, 4879, 4878, 4877
1300, 1180, 235, 234, 1229, 4781, 2836, 4880, 4879
1301, 128, 1181, 1230, 129, 4782, 4882, 4881, 2728
1302, 1181, 1182, 1231, 1230, 4784, 4884, 4883, 4882
1303, 1182, 1183, 1232, 1231, 4786, 4886, 4885, 4884
1304, 1183, 1184, 1233, 1232, 4788, 4888, 4887, 4886
1305, 1184, 1185, 1234, 1233, 4790, 4890, 4889, 4888
1306, 1185, 1186, 1235, 1234, 4792, 4892, 4891, 4890
1307, 1186, 1187, 1236, 1235, 4794, 4894, 4893, 4892
1308, 1187, 1188, 1237, 1236, 4796, 4896, 4895, 4894
1309, 1188, 1189, 1238, 1237, 4798, 4898, 4897, 4896
1310, 1189, 1190, 1239, 1238, 4800, 4900, 4899, 4898
1311, 1190, 1191, 1240, 1239, 4802, 4902, 4901, 4900
1312, 1191, 1192, 1241, 1240, 4804, 4904, 4903, 4902
1313, 1192, 1193, 1242, 1241, 4806, 4906, 4905, 4904
1314, 1193, 1194, 1243, 1242, 4808, 4908, 4907, 4906
1315, 1194, 1195, 1244, 1243, 4810, 4910, 4909, 4908
1316, 1195, 1196, 1245, 1244, 4812, 4912, 4911, 4910
1317, 1196, 1197, 1246, 1245, 4814, 4914, 4913, 4912
1318, 1197, 1198, 1247, 1246, 4816, 4916, 4915, 4914
1319, 1198, 1199, 1248, 1247, 4818, 4918, 4917, 4916
1320, 1199, 1200, 1249, 1248, 4820, 4920, 4919, 4918
1321, 1200, 1201, 1250, 1249, 4822, 4922, 4921, 4920
1322, 1201, 1202, 1251, 1250, 4824, 4924, 4923, 4922
1323, 1202, 1203, 1252, 1251, 4826, 4926, 4925, 4924
1324, 1203, 1204, 1253, 1252, 4828, 4928, 4927, 4926
1325, 1204, 1205, 1254, 1253, 4830, 4930, 4929, 4928
1326, 1205, 1206, 1255, 1254, 4832, 4932, 4931, 4930
1327, 1206, 1207, 1256, 1255, 4834, 4934, 4933, 4932
1328, 1207, 1208, 1257, 1256, 4836, 4936, 4935, 4934
1329, 1208, 1209, 1258, 1257, 4838, 4938, 4937, 4936
1330, 1209, 1210, 1259, 1258, 4840, 4940, 4939, 4938
1331, 1210, 1211, 1260, 1259, 4842, 4942, 4941, 4940
1332, 1211, 1212, 1261, 1260, 4844, 4944, 4943, 4942
1333, 1212, 1213, 1262, 1261, 4846, 4946, 4945, 4944
1334, 1213, 1214, 1263, 1262, 4848, 4948, 4947, 4946
1335, 1214, 1215, 1264, 1263, 4850, 4950, 4949, 4948
1336, 1215, 1216, 1265, 1264, 4852, 4952, 4951, 4950
1337, 1216, 1217, 1266, 1265, 4854, 4954, 4953, 4952
1338, 1217, 1218, 1267, 1266, 4856, 4956, 4955, 4954
1339, 1218, 1219, 1268, 1267, 4858, 4958, 4957, 4956
1340, 1219, 1220, 1269, 1268, 4860, 4960, 4959, 4958
1341, 1220, 1221, 1270, 1269, 4862, 4962, 4961, 4960
1342, 1221, 1222, 1271, 1270, 4864, 4964, 4963, 4962
1343, 1222, 1223, 1272, 1271, 4866, 4966, 4965, 4964
1344, 1223, 1224, 1273, 1272, 4868, 4968, 4967, 4966
1345, 1224, 1225, 1274, 1273, 4870, 4970, 4969, 4968
1346, 1225, 1226, 1275, 1274, 4872, 4972, 4971, 4970
1347, 1226, 1227, 1276, 1275, 4874, 4974, 4973, 4972
1348, 1227, 1228, 1277, 1276, 4876, 4976, 4975, 4974
1349, 1228, 1229, 1278, 1277, 4878, 4978, 4977, 4976
1350, 1229, 234, 233, 1278, 4880, 2835, 4979, 4978
1351, 129, 1230, 1279, 130, 4881, 4981, 4980, 2729
1352, 1230, 1231, 1280, 1279, 4883, 4983, 4982, 4981
1353, 1231, 1232, 1281, 1280, 4885, 4985, 4984, 4983
1354, 1232, 1233, 1282, 1281, 4887, 4987, 4986, 4985
1355, 1233, 1234, 1283, 1282, 4889, 4989, 4988, 4987
1356, 1234, 1235, 1284, 1283, 4891, 4991, 4990, 4989
1357, 1235, 1236, 1285, 1284, 4893, 4993, 4992, 4991
1358, 1236, 1237, 1286, 1285, 4895, 4995, 4994, 4993
1359, 1237, 1238, 1287, 1286, 4897, 4997, 4996, 4995
1360, 1238, 1239, 1288, 1287, 4899, 4999, 4998, 4997
1361, 1239, 1240, 1289, 1288, 4901, 5001, 5000, 4999
1362, 1240, 1241, 1290, 1289, 4903, 5003, 5002, 5001
1363, 1241, 1242, 1291, 1290, 4905, 5005, 5004, 5003
1364, 1242, 1243, 1292, 1291, 4907, 5007, 5006, 5005
1365, 1243, 1244, 1293, 1292, 4909, 5009, 5008, 5007
1366, 1244, 1245, 1294, 1293, 4911, 5011, 5010, 5009
1367, 1245, 1246, 1295, 1294, 4913, 5013, 5012, 5011
1368, 1246, 1247, 1296, 1295, 4915, 5015, 5014, 5013
1369, 1247, 1248, 1297, 1296, 4917, 5017, 5016, 5015
1370, 1248, 1249, 1298, 1297, 4919, 5019, 5018, 5017
1371, 1249, 1250, 1299, 1298, 4921, 5021, 5020, 5019
1372, 1250, 1251, 1300, 1299, 4923, 5023, 5022, 5021
1373, 1251, 1252, 1301, 1300, 4925, 5025, 5024, 5023
1374, 1252, 1253, 1302, 1301, 4927, 5027, 5026, 5025
1375, 1253, 1254, 1303, 1302, 4929, 5029, 5028, 5027
1376, 1254, 1255, 1304, 1303, 4931, 5031, 5030, 5029
1377, 1255, 1256, 1305, 1304, 4933, 5033, 5032, 5031
1378, 1256, 1257, 1306, 1305, 4935, 5035, 5034, 5033
1379, 1257, 1258, 1307, 1306, 4937, 5037, 5036, 5035
1380, 1258, 1259, 1308, 1307, 4939, 5039, 5038, 5037
1381, 1259, 1260, 1309, 1308, 4941, 5041, 5040, 5039
1382, 1260, 1261, 1310, 1309, 4943, 5043, 5042, 5041
1383, 1261, 1262, 1311, 1310, 4945, 5045, 5044, 5043
1384, 1262, 1263, 1312, 1311, 4947, 5047, 5046, 5045
1385, 1263, 1264, 1313, 1312, 4949, 5049, 5048, 5047
1386, 1264, 1265, 1314, 1313, 4951, 5051, 5050, 5049
1387, 1265, 1266, 1315, 1314, 4953, 5053, 5052, 5051
1388, 1266, 1267, 1316, 1315, 4955, 5055, 5054, 5053
1389, 1267, 1268, 1317, 1316, 4957, 5057, 5056, 5055
1390, 1268, 1269, 1318, 1317, 4959, 5059, 5058, 5057
1391, 1269, 1270, 1319, 1318, 4961, 5061, 5060, 5059
1392, 1270, 1271, 1320, 1319, 4963, 5063, 5062, 5061
1393, 1271, 1272, 1321, 1320, 4965, 5065, 5064, 5063
1394, 1272, 1273, 1322, 1321, 4967, 5067, 5066, 5065
1395, 1273, 1274, 1323, 1322, 4969, 5069, 5068, 5067
1396, 1274, 1275, 1324, 1323, 4971, 5071, 5070, 5069
1397, 1275, 1276, 1325, 1324, 4973, 5073, 5072, 5071
1398, 1276, 1277, 1326, 1325, 4975, 5075, 5074, 5073
1399, 1277, 1278, 1327, 1326, 4977, 5077, 5076, 5075
1400, 1278, 233, 232, 1327, 4979, 2834, 5078, 5077
1401, 130, 1279, 1328, 131, 4980, 5080, 5079, 2730
1402, 1279, 1280, 1329, 1328, 4982, 5082, 5081, 5080
1403, 1280, 1281, 1330, 1329, 4984, 5084, 5083, 5082
1404, 1281, 1282, 1331, 1330, 4986, 5086, 5085, 5084
1405, 1282, 1283, 1332, 1331, 4988, 5088, 5087, 5086
1406, 1283, 1284, 1333, 1332, 4990, 5090, 5089, 5088
1407, 1284, 1285, 1334, 1333, 4992, 5092, 5091, 5090
1408, 1285, 1286, 1335, 1334, 4994, 5094, 5093, 5092
1409, 1286, 1287, 1336, 1335, 4996, 5096, 5095, 5094
1410, 1287, 1288, 1337, 1336, 4998, 5098, 5097, 5096
1411, 1288, 1289, 1338, 1337, 5000, 5100, 5099, 5098
1412, 1289, 1290, 1339, 1338, 5002, 5102, 5101, 5100
1413, 1290, 1291, 1340, 1339, 5004, 5104, 5103, 5102
1414, 1291, 1292, 1341, 1340, 5006, 5106, 5105, 5104
1415, 1292, 1293, 1342, 1341, 5008, 5108, 5107, 5106
1416, 1293, 1294, 1343, 1342, 5010, 5110, 5109, 5108
1417, 1294, 1295, 1344, 1343, 5012, 5112, 5111, 5110
1418, 1295, 1296, 1345, 1344, 5014, 5114, 5113, 5112
1419, 1296, 1297, 1346, 1345, 5016, 5116, 5115, 5114
1420, 1297, 1298, 1347, 1346, 5018, 5118, 5117, 5116
1421, 1298, 1299, 1348, 1347, 5020, 5120, 5119, 5118
1422, 1299, 1300, 1349, 1348, 5022, 5122, 5121, 5120
1423, 1300, 1301, 1350, 1349, 5024, 5124, 5123, 5122
1424, 1301, 1302, 1351, 1350, 5026, 5126, 5125, 5124
1425, 1302, 1303, 1352, 1351, 5028, 5128, 5127, 5126
1426, 1303, 1304, 1353, 1352, 5030, 5130, 5129, 5128
1427, 1304, 1305, 1354, 1353, 5032, 5132, 5131, 5130
1428, 1305, 1306, 1355, 1354, 5034, 5134, 5133, 5132
1429, 1306, 1307, 1356, 1355, 5036, 5136, 5135, 5134
1430, 1307, 1308, 1357, 1356, 5038, 5138, 5137, 5136
1431, 1308, 1309, 1358, 1357, 5040, 5140, 5139, 5138
1432, 1309, 1310, 1359, 1358, 5042, 5142, 5141, 5140
1433, 1310, 1311, 1360, 1359, 5044, 5144, 5143, 5142
1434, 1311, 1312, 1361, 1360, 5046, 5146, 5145, 5144
1435, 1312, 1313, 1362, 1361, 5048, 5148, 5147, 5146
1436, 1313, 1314, 1363, 1362, 5050, 5150, 5149, 5148
1437, 1314, 1315, 1364, 1363, 5052, 5152, 5151, 5150
1438, 1315, 1316, 1365, 1364, 5054, 5154, 5153, 5152
1439, 1316, 1317, 1366, 1365, 5056, 5156, 5155, 5154
1440, 1317, 1318, 1367, 1366, 5058, 5158, 5157, 5156
1441, 1318, 1319, 1368, 1367, 5060, 5160, 5159, 5158
1442, 1319, 1320, 1369, 1368, 5062, 5162, 5161, 5160
1443, 1320, 1321, 1370, 1369, 5064, 5164, 5163, 5162
1444, 1321, 1322, 1371, 1370, 5066, 5166, 5165, 5164
1445, 1322, 1323, 1372, 1371, 5068, 5168, 5167, 5166
1446, 1323, 1324, 1373, 1372, 5070, 5170, 5169, 5168
1447, 1324, 1325, 1374, 1373, 5072, 5172, 5171, 5170
1448, 1325, 1326, 1375, 1374, 5074, 5174, 5173, 5172
1449, 1326, 1327, 1376, 1375, 5076, 5176, 5175, 5174
1450, 1327, 232, 231, 1376, 5078, 2833, 5177, 5176
1451, 131, 1328, 1377, 132, 5079, 5179, 5178, 2731
1452, 1328, 1329, 1378, 1377, 5081, 5181, 5180, 5179
1453, 1329, 1330, 1379, 1378, 5083, 5183, 5182, 5181
1454, 1330, 1331, 1380, 1379, 5085, 5185, 5184, 5183
1455, 1331, 1332, 1381, 1380, 5087, 5187, 5186, 5185
1456, 1332, 1333, 1382, 1381, 5089, 5189, 5188, 5187
1457, 1333, 1334, 1383, 1382, 5091, 5191, 5190, 5189
1458, 1334, 1335, 1384, 1383, 5093, 5193, 5192, 5191
1459, 1335, 1336, 1385, 1384, 5095, 5195, 5194, 5193
1460, 1336, 1337, 1386, 1385, 5097, 5197, 5196, 5195
1461, 1337, 1338, 1387, 1386, 5099, 5199, 5198, 5197
1462, 1338, 1339, 1388, 1387, 5101, 5201, 5200, 5199
1463, 1339, 1340, 1389, 1388, 5103, 5203, 5202, 5201
1464, 1340, 1341, 1390, 1389, 5105, 5205, 5204, 5203
1465, 1341, 1342, 1391, 1390, 5107, 5207, 5206, 5205
1466, 1342, 1343, 1392, 1391, 5109, 5209, 5208, 5207
1467, 1343, 1344, 1393, 1392, 5111, 5211, 5210, 5209
1468, 1344, 1345, 1394, 1393, 5113, 5213, 5212, 5211
1469, 1345, 1346, 1395, 1394, 5115, 5215, 5214, 5213
1470, 1346, 1347, 1396, 1395, 5117, 5217, 5216, 5215
1471, 1347, 1348, 1397, 1396, 5119, 5219, 5218, 5217
1472, 1348, 1349, 1398, 1397, 5121, 5221, 5220, 5219
1473, 1349, 1350, 1399, 1398, 5123, 5223, 5222, 5221
1474, 1350, 1351, 1400, 1399, 5125, 5225, 5224, 5223
1475, 1351, 1352, 1401, 1400, 5127, 5227, 5226, 5225
1476, 1352, 1353, 1402, 1401, 5129, 5229, 5228, 5227
1477, 1353, 1354, 1403, 1402, 5131, 5231, 5230, 5229
1478, 1354, 1355, 1404, 1403, 5133, 5233, 5232, 5231
1479, 1355, 1356, 1405, 1404, 5135, 5235, 5234, 5233
1480, 1356, 1357, 1406, 1405, 5137, 5237, 5236, 5235
1481, 1357, 1358, 1407, 1406, 5139, 5239, 5238, 5237
1482, 1358, 1359, 1408, 1407, 5141, 5241, 5240, 5239
1483, 1359, 1360, 1409, 1408, 5143, 5243, 5242, 5241
1484, 1360, 1361, 1410, 1409, 5145, 5245, 5244, 5243
1485, 1361, 1362, 1411, 1410, 5147, 5247, 5246, 5245
1486, 1362, 1363, 1412, 1411, 5149, 5249, 5248, 5247
1487, 1363, 1364, 1413, 1412, 5151, 5251, 5250, 5249
1488, 1364, 1365, 1414, 1413, 5153, 5253, 5252, 5251
1489, 1365, 1366, 1415, 1414, 5155, 5255, 5254, 5253
1490, 1366, 1367, 1416, 1415, 5157, 5257, 5256, 5255
1491, 1367, 1368, 1417, 1416, 5159, 5259, 5258, 5257
1492, 1368, 1369, 1418, 1417, 5161, 5261, 5260, 5259
1493, 1369, 1370, 1419, 1418, 5163, 5263, 5262, 5261
1494, 1370, 1371, 1420, 1419, 5165, 5265, 5264, 5263
1495, 1371, 1372, 1421, 1420, 5167, 5267, 5266, 5265
1496, 1372, 1373, 1422, 1421, 5169, 5269, 5268, 5267
1497, 1373, 1374, 1423, 1422, 5171, 5271, 5270, 5269
1498, 1374, 1375, 1424, 1423, 5173, 5273, 5272, 5271
1499, 1375, 1376, 1425, 1424, 5175, 5275, 5274, 5273
1500, 1376, 231, 230, 1425, 5177, 2832, 5276, 5275
1501, 132, 1377, 1426, 133, 5178, 5278, 5277, 2732
1502, 1377, 1378, 1427, 1426, 5180, 5280, 5279, 5278
1503, 1378, 1379, 1428, 1427, 5182, 5282, 5281, 5280
1504, 1379, 1380, 1429, 1428, 5184, 5284, 5283, 5282
1505, 1380, 1381, 1430, 1429, 5186, 5286, 5285, 5284
1506, 1381, 1382, 1431, 1430, 5188, 5288, 5287, 5286
1507, 1382, 1383, 1432, 1431, 5190, 5290, 5289, 5288
1508, 1383, 1384, 1433, 1432, 5192, 5292, 5291, 5290
1509, 1384, 1385, 1434, 1433, 5194, 5294, 5293, 5292
1510, 1385, 1386, 1435, 1434, 5196, 5296, 5295, 5294
1511, 1386, 1387, 1436, 1435, 5198, 5298, 5297, 5296
1512, 1387, 1388, 1437, 1436, 5200, 5300, 5299, 5298
1513, 1388, 1389, 1438, 1437, 5202, 5302, 5301, 5300
1514, 1389, 1390, 1439, 1438, 5204, 5304, 5303, 5302
1515, 1390, 1391, 1440, 1439, 5206, 5306, 5305, 5304
1516, 1391, 1392, 1441, 1440, 5208, 5308, 5307, 5306
1517, 1392, 1393, 1442, 1441, 5210, 5310, 5309, 5308
1518, 1393, 1394, 1443, 1442, 5212, 5312, 5311, 5310
1519, 1394, 1395, 1444, 1443, 5214, 5314, 5313, 5312
1520, 1395, 1396, 1445, 1444, 5216, 5316, 5315, 5314
1521, 1396, 1397, 1446, 1445, 5218, 5318, 5317, 5316
1522, 1397, 1398, 1447, 1446, 5220, 5320, 5319, 5318
1523, 1398, 1399, 1448, 1447, 5222, 5322, 5321, 5320
1524, 1399, 1400, 1449, 1448, 5224, 5324, 5323, 5322
1525, 1400, 1401, 1450, 1449, 5226, 5326, 5325, 5324
1526, 1401, 1402, 1451, 1450, 5228, 5328, 5327, 5326
1527, 1402, 1403, 1452, 1451, 5230, 5330, 5329, 5328
1528, 1403, 1404, 1453, 1452, 5232, 5332, 5331, 5330
1529, 1404, 1405, 1454, 1453, 5234, 5334, 5333, 5332
1530, 1405, 1406, 1455, 1454, 5236, 5336, 5335, 5334
1531, 1406, 1407, 1456, 1455, 5238, 5338, 5337, 5336
1532, 1407, 1408, 1457, 1456, 5240, 5340, 5339, 5338
1533, 1408, 1409, 1458, 1457, 5242, 5342, 5341, 5340
1534, 1409, 1410, 1459, 1458, 5244, 5344, 5343, 5342
1535, 1410, 1411, 1460, 1459, 5246, 5346, 5345, 5344
1536, 1411, 1412, 1461, 1460, 5248, 5348, 5347, 5346
1537, 1412, 1413, 1462, 1461, 5250, 5350, 5349, 5348
1538, 1413, 1414, 1463, 1462, 5252, 5352, 5351, 5350
1539, 1414, 1415, 1464, 1463, 5254, 5354, 5353, 5352
1540, 1415, 1416, 1465, 1464, 5256, 5356, 5355, 5354
1541, 1416, 1417, 1466, 1465, 5258, 5358, 5357, 5356
1542, 1417, 1418, 1467, 1466, 5260, 5360, 5359, 5358
1543, 1418, 1419, 1468, 1467, 5262, 5362, 5361, 5360
1544, 1419, 1420, 1469, 1468, 5264, 5364, 5363, 5362
1545, 1420, 1421, 1470, 1469, 5266, 5366, 5365, 5364
1546, 1421, 1422, 1471, 1470, 5268, 5368, 5367, 5366
1547, 1422, 1423, 1472, 1471, 5270, 5370, 5369, 5368
1548, 1423, 1424, 1473, 1472, 5272, 5372, 5371, 5370
1549, 1424, 1425, 1474, 1473, 5274, 5374, 5373, 5372
1550, 1425, 230, 229, 1474, 5276, 2831, 5375, 5374
1551, 133, 1426, 1475, 134, 5277, 5377, 5376, 2733
1552, 1426, 1427, 1476, 1475, 5279, 5379, 5378, 5377
1553, 1427, 1428, 1477, 1476, 5281, 5381, 5380, 5379
1554, 1428, 1429, 1478, 1477, 5283, 5383, 5382, 5381
1555, 1429, 1430, 1479, 1478, 5285, 5385, 5384, 5383
1556, 1430, 1431, 1480, 1479, 5287, 5387, 5386, 5385
1557, 1431, 1432, 1481, 1480, 5289, 5389, 5388, 5387
1558, 1432, 1433, 1482, 1481, 5291, 5391, 5390, 5389
1559, 1433, 1434, 1483, 1482, 5293, 5393, 5392, 5391
1560, 1434, 1435, 1484, 1483, 5295, 5395, 5394, 5393
1561, 1435, 1436, 1485, 1484, 5297, 5397, 5396, 5395
1562, 1436, 1437, 1486, 1485, 5299, 5399, 5398, 5397
1563, 1437, 1438, 1487, 1486, 5301, 5401, 5400, 5399
1564, 1438, 1439, 1488, 1487, 5303, 5403, 5402, 5401
1565, 1439, 1440, 1489, 1488, 5305, 5405, 5404, 5403
1566, 1440, 1441, 1490, 1489, 5307, 5407, 5406, 5405
1567, 1441, 1442, 1491, 1490, 5309, 5409, 5408, 5407
1568, 1442, 1443, 1492, 1491, 5311, 5411, 5410, 5409
1569, 1443, 1444, 1493, 1492, 5313, 5413, 5412, 5411
1570, 1444, 1445, 1494, 1493, 5315, 5415, 5414, 5413
1571, 1445, 1446, 1495, 1494, 5317, 5417, 5416, 5415
1572, 1446, 1447, 1496, 1495, 5319, 5419, 5418, 5417
1573, 1447, 1448, 1497, 1496, 5321, 5421, 5420, 5419
1574, 1448, 1449, 1498, 1497, 5323, 5423, 5422, 5421
1575, 1449, 1450, 1499, 1498, 5325, 5425, 5424, 5423
1576, 1450, 1451, 1500, 1499, 5327, 5427, 5426, 5425
1577, 1451, 1452, 1501, 1500, 5329, 5429, 5428, 5427
1578, 1452, 1453, 1502, 1501, 5331, 5431, 5430, 5429
1579, 1453, 1454, 1503, 1502, 5333, 5433, 5432, 5431
1580, 1454, 1455, 1504, 1503, 5335, 5435, 5434, 5433
1581, 1455, 1456, 1505, 1504, 5337, 5437, 5436, 5435
1582, 1456, 1457, 1506, 1505, 5339, 5439, 5438, 5437
1583, 1457, 1458, 1507, 1506, 5341, 5441, 5440, 5439
1584, 1458, 1459, 1508, 1507, 5343, 5443, 5442, 5441
1585, 1459, 1460, 1509, 1508, 5345, 5445, 5444, 5443
1586, 1460, 1461, 1510, 1509, 5347, 5447, 5446, 5445
1587, 1461, 1462, 1511, 1510, 5349, 5449, 5448, 5447
1588, 1462, 1463, 1512, 1511, 5351, 5451, 5450, 5449
1589, 1463, 1464, 1513, 1512, 5353, 5453, 5452, 5451
1590, 1464, 1465, 1514, 1513, 5355, 5455, 5454, 5453
1591, 1465, 1466, 1515, 1514, 5357, 5457, 5456, 5455
1592, 1466, 1467, 1516, 1515, 5359, 5459, 5458, 5457
1593, 1467, 1468, 1517, 1516, 5361, 5461, 5460, 5459
1594, 1468, 1469, 1518, 1517, 5363, 5463, 5462, 5461
1595, 1469, 1470, 1519, 1518, 5365, 5465, 5464, 5463
1596, 1470, 1471, 1520, 1519, 5367, 5467, 5466, 5465
1597, 1471, 1472, 1521, 1520, 5369, 5469, 5468, 5467
1598, 1472, 1473, 1522, 1521, 5371, 5471, 5470, 5469
1599, 1473, 1474, 1523, 1522, 5373, 5473, 5472, 5471
1600, 1474, 229, 228, 1523, 5375, 2830, 5474, 5473
1601, 134, 1475, 1524, 135, 5376, 5476, 5475, 2734
1602, 1475, 1476, 1525, 1524, 5378, 5478, 5477, 5476
1603, 1476, 1477, 1526, 1525, 5380, 5480, 5479, 5478
1604, 1477, 1478, 1527, 1526, 5382, 5482, 5481, 5480
1605, 1478, 1479, 1528, 1527, 5384, 5484, 5483, 5482
1606, 1479, 1480, 1529, 1528, 5386, 5486, 5485, 5484
1607, 1480, 1481, 1530, 1529, 5388, 5488, 5487, 5486
1608, 1481, 1482, 1531, 1530, 5390, 5490, 5489, 5488
1609, 1482, 1483, 1532, 1531, 5392, 5492, 5491, 5490
1610, 1483, 1484, 1533, 1532, 5394, 5494, 5493, 5492
1611, 1484, 1485, 1534, 1533, 5396, 5496, 5495, 5494
1612, 1485, 1486, 1535, 1534, 5398, 5498, 5497, 5496
1613, 1486, 1487, 1536, 1535, 5400, 5500, 5499, 5498
1614, 1487, 1488, 1537, 1536, 5402, 5502, 5501, 5500
1615, 1488, 1489, 1538, 1537, 5404, 5504, 5503, 5502
1616, 1489, 1490, 1539, 1538, 5406, 5506, 5505, 5504
1617, 1490, 1491, 1540, 1539, 5408, 5508, 5507, 5506
1618, 1491, 1492, 1541, 1540, 5410, 5510, 5509, 5508
1619, 1492, 1493, 1542, 1541, 5412, 5512, 5511, 5510
1620, 1493, 1494, 1543, 1542, 5414, 5514, 5513, 5512
1621, 1494, 1495, 1544, 1543, 5416, 5516, 5515, 5514
1622, 1495, 1496, 1545, 1544, 5418, 5518, 5517, 5516
1623, 1496, 1497, 1546, 1545, 5420, 5520, 5519, 5518
1624, 1497, 1498, 1547, 1546, 5422, 5522, 5521, 5520
1625, 1498, 1499, 1548, 1547, 5424, 5524, 5523, 5522
1626, 1499, 1500, 1549, 1548, 5426, 5526, 5525, 5524
1627, 1500, 1501, 1550, 1549, 5428, 5528, 5527, 5526
1628, 1501, 1502, 1551, 1550, 5430, 5530, 5529, 5528
1629, 1502, 1503, 1552, 1551, 5432, 5532, 5531, 5530
1630, 1503, 1504, 1553, 1552, 5434, 5534, 5533, 5532
1631, 1504, 1505, 1554, 1553, 5436, 5536, 5535, 5534
1632, 1505, 1506, 1555, 1554, 5438, 5538, 5537, 5536
1633, 1506, 1507, 1556, 1555, 5440, 5540, 5539, 5538
1634, 1507, 1508, 1557, 1556, 5442, 5542, 5541, 5540
1635, 1508, 1509, 1558, 1557, 5444, 5544, 5543, 5542
1636, 1509, 1510, 1559, 1558, 5446, 5546, 5545, 5544
1637, 1510, 1511, 1560, 1559, 5448, 5548, 5547, 5546
1638, 1511, 1512, 1561, 1560, 5450, 5550, 5549, 5548
1639, 1512, 1513, 1562, 1561, 5452, 5552, 5551, 5550
1640, 1513, 1514, 1563, 1562, 5454, 5554, 5553, 5552
1641, 1514, 1515, 1564, 1563, 5456, 5556, 5555, 5554
1642, 1515, 1516, 1565, 1564, 5458, 5558, 5557, 5556
1643, 1516, 1517, 1566, 1565, 5460, 5560, 5559, 5558
1644, 1517, 1518, 1567, 1566, 5462, 5562, 5561, 5560
1645, 1518, 1519, 1568, 1567, 5464, 5564, 5563, 5562
1646, 1519, 1520, 1569, 1568, 5466, 5566, 5565, 5564
1647, 1520, 1521, 1570, 1569, 5468, 5568, 5567, 5566
1648, 1521, 1522, 1571, 1570, 5470, 5570, 5569, 5568
1649, 1522, 1523, 1572, 1571, 5472, 5572, 5571, 5570
1650, 1523, 228, 227, 1572, 5474, 2829, 5573, 5572
1651, 135, 1524, 1573, 136, 5475, 5575, 5574, 2735
1652, 1524, 1525, 1574, 1573, 5477, 5577, 5576, 5575
1653, 1525, 1526, 1575, 1574, 5479, 5579, 5578, 5577
1654, 1526, 1527, 1576, 1575, 5481, 5581, 5580, 5579
1655, 1527, 1528, 1577, 1576, 5483, 5583, 5582, 5581
1656, 1528, 1529, 1578, 1577, 5485, 5585, 5584, 5583
1657, 1529, 1530, 1579, 1578, 5487, 5587, 5586, 5585
1658, 1530, 1531, 1580, 1579, 5489, 5589, 5588, 5587
1659, 1531, 1532, 1581, 1580, 5491, 5591, 5590, 5589
1660, 1532, 1533, 1582, 1581, 5493, 5593, 5592, 5591
1661, 1533, 1534, 1583, 1582, 5495, 5595, 5594, 5593
1662, 1534, 1535, 1584, 1583, 5497, 5597, 5596, 5595
1663, 1535, 1536, 1585, 1584, 5499, 5599, 5598, 5597
1664, 1536, 1537, 1586, 1585, 5501, 5601, 5600, 5599
1665, 1537, 1538, 1587, 1586, 5503, 5603, 5602, 5601
1666, 1538, 1539, 1588, 1587, 5505, 5605, 5604, 5603
1667, 1539, 1540, 1589, 1588, 5507, 5607, 5606, 5605
1668, 1540, 1541, 1590, 1589, 5509, 5609, 5608, 5607
1669, 1541, 1542, 1591, 1590, 5511, 5611, 5610, 5609
1670, 1542, 1543, 1592, 1591, 5513, 5613, 5612, 5611
1671, 1543, 1544, 1593, 1592, 5515, 5615, 5614, 5613
1672, 1544, 1545, 1594, 1593, 5517, 5617, 5616, 5615
1673, 1545, 1546, 1595, 1594, 5519, 5619, 5618, 5617
1674, 1546, 1547, 1596, 1595, 5521, 5621, 5620, 5619
1675, 1547, 1548, 1597, 1596, 5523, 5623, 5622, 5621
1676, 1548, 1549, 1598, 1597, 5525, 5625, 5624, 5623
1677, 1549, 1550, 1599, 1598, 5527, 5627, 5626, 5625
1678, 1550, 1551, 1600, 1599, 5529, 5629, 5628, 5627
1679, 1551, 1552, 1601, 1600, 5531, 5631, 5630, 5629
1680, 1552, 1553, 1602, 1601, 5533, 5633, 5632, 5631
1681, 1553, 1554, 1603, 1602, 5535, 5635, 5634, 5633
1682, 1554, 1555, 1604, 1603, 5537, 5637, 5636, 5635
1683, 1555, 1556, 1605, 1604, 5539, 5639, 5638, 5637
1684, 1556, 1557, 1606, 1605, 5541, 5641, 5640, 5639
1685, 1557, 1558, 1607, 1606, 5543, 5643, 5642, 5641
1686, 1558, 1559, 1608, 1607, 5545, 5645, 5644, 5643
1687, 1559, 1560, 1609, 1608, 5547, 5647, 5646, 5645
1688, 1560, 1561, 1610, 1609, 5549, 5649, 5648, 5647
1689, 1561, 1562, 1611, 1610, 5551, 5651, 5650, 5649
1690, 1562, 1563, 1612, 1611, 5553, 5653, 5652, 5651
1691, 1563, 1564, 1613, 1612, 5555, 5655, 5654, 5653
1692, 1564, 1565, 1614, 1613, 5557, 5657, 5656, 5655
1693, 1565, 1566, 1615, 1614, 5559, 5659, 5658, 5657
1694, 1566, 1567, 1616, 1615, 5561, 5661, 5660, 5659
1695, 1567, 1568, 1617, 1616, 5563, 5663, 5662, 5661
1696, 1568, 1569, 1618, 1617, 5565, 5665, 5664, 5663
1697, 1569, 1570, 1619, 1618, 5567, 5667, 5666, 5665
1698, 1570, 1571, 1620, 1619, 5569, 5669, 5668, 5667
1699, 1571, 1572, 1621, 1620, 5571, 5671, 5670, 5669
1700, 1572, 227, 226, 1621, 5573, 2828, 5672, 5671
1701, 136, 1573, 1622, 137, 5574, 5674, 5673, 2736
1702, 1573, 1574, 1623, 1622, 5576, 5676, 5675, 5674
1703, 1574, 1575, 1624, 1623, 5578, 5678, 5677, 5676
1704, 1575, 1576, 1625, 1624, 5580, 5680, 5679, 5678
1705, 1576, 1577, 1626, 1625, 5582, 5682, 5681, 5680
1706, 1577, 1578, 1627, 1626, 5584, 5684, 5683, 5682
1707, 1578, 1579, 1628, 1627, 5586, 5686, 5685, 5684
1708, 1579, 1580, 1629, 1628, 5588, 5688, 5687, 5686
1709, 1580, 1581, 1630, 1629, 5590, 5690, 5689, 5688
1710, 1581, 1582, 1631, 1630, 5592, 5692, 5691, 5690
1711, 1582, 1583, 1632, 1631, 5594, 5694, 5693, 5692
1712, 1583, 1584, 1633, 1632, 5596, 5696, 5695, 5694
1713, 1584, 1585, 1634, 1633, 5598, 5698, 5697, 5696
1714, 1585, 1586, 1635, 1634, 5600, 5700, 5699, 5698
1715, 1586, 1587, 1636, 1635, 5602, 5702, 5701, 5700
1716, 1587, 1588, 1637, 1636, 5604, 5704, 5703, 5702
1717, 1588, 1589, 1638, 1637, 5606, 5706, 5705, 5704
1718, 1589, 1590, 1639, 1638, 5608, 5708, 5707, 5706
1719, 1590, 1591, 1640, 1639, 5610, 5710, 5709, 5708
1720, 1591, 1592, 1641, 1640, 5612, 5712, 5711, 5710
1721, 1592, 1593, 1642, 1641, 5614, 5714, 5713, 5712
1722, 1593, 1594, 1643, 1642, 5616, 5716, 5715, 5714
1723, 1594, 1595, 1644, 1643, 5618, 5718, 5717, 5716
1724, 1595, 1596, 1645, 1644, 5620, 5720, 5719, 5718
1725, 1596, 1597, 1646, 1645, 5622, 5722, 5721, 5720
1726, 1597, 1598, 1647, 1646, 5624, 5724, 5723, 5722
1727, 1598, 1599, 1648, 1647, 5626, 5726, 5725, 5724
1728, 1599, 1600, 1649, 1648, 5628, 5728, 5727, 5726
1729, 1600, 1601, 1650, 1649, 5630, 5730, 5729, 5728
1730, 1601, 1602, 1651, 1650, 5632, 5732, 5731, 5730
1731, 1602, 1603, 1652, 1651, 5634, 5734, 5733, 5732
1732, 1603, 1604, 1653, 1652, 5636, 5736, 5735, 5734
1733, 1604, 1605, 1654, 1653, 5638, 5738, 5737, 5736
1734, 1605, 1606, 1655, 1654, 5640, 5740, 5739, 5738
1735, 1606, 1607, 1656, 1655, 5642, 5742, 5741, 5740
1736, 1607, 1608, 1657, 1656, 5644, 5744, 5743, 5742
1737, 1608, 1609, 1658, 1657, 5646, 5746, 5745, 5744
1738, 1609, 1610, 1659, 1658, 5648, 5748, 5747, 5746
1739, 1610, 1611, 1660, 1659, 5650, 5750, 5749, 5748
1740, 1611, 1612, 1661, 1660, 5652, 5752, 5751, 5750
1741, 1612, 1613, 1662, 1661, 5654, 5754, 5753, 5752
1742, 1613, 1614, 1663, 1662, 5656, 5756, 5755, 5754
1743, 1614, 1615, 1664, 1663, 5658, 5758, 5757, 5756
1744, 1615, 1616, 1665, 1664, 5660, 5760, 5759, 5758
1745, 1616, 1617, 1666, 1665, 5662, 5762, 5761, 5760
1746, 1617, 1618, 1667, 1666, 5664, 5764, 5763, 5762
1747, 1618, 1619, 1668, 1667, 5666, 5766, 5765, 5764
1748, 1619, 1620, 1669, 1668, 5668, 5768, 5767, 5766
1749, 1620, 1621, 1670, 1669, 5670, 5770, 5769, 5768
1750, 1621, 226, 225, 1670, 5672, 2827, 5771, 5770
1751, 137, 1622, 1671, 138, 5673, 5773, 5772, 2737
1752, 1622, 1623, 1672, 1671, 5675, 5775, 5774, 5773
1753, 1623, 1624, 1673, 1672, 5677, 5777, 5776, 5775
1754, 1624, 1625, 1674, 1673, 5679, 5779, 5778, 5777
1755, 1625, 1626, 1675, 1674, 5681, 5781, 5780, 5779
1756, 1626, 1627, 1676, 1675, 5683, 5783, 5782, 5781
1757, 1627, 1628, 1677, 1676, 5685, 5785, 5784, 5783
1758, 1628, 1629, 1678, 1677, 5687, 5787, 5786, 5785
1759, 1629, 1630, 1679, 1678, 5689, 5789, 5788, 5787
1760, 1630, 1631, 1680, 1679, 5691, 5791, 5790, 5789
1761, 1631, 1632, 1681, 1680, 5693, 5793, 5792, 5791
1762, 1632, 1633, 1682, 1681, 5695, 5795, 5794, 5793
1763, 1633, 1634, 1683, 1682, 5697, 5797, 5796, 5795
1764, 1634, 1635, 1684, 1683, 5699, 5799, 5798, 5797
1765, 1635, 1636, 1685, 1684, 5701, 5801, 5800, 5799
1766, 1636, 1637, 1686, 1685, 5703, 5803, 5802, 5801
1767, 1637, 1638, 1687, 1686, 5705, 5805, 5804, 5803
1768, 1638, 1639, 1688, 1687, 5707, 5807, 5806, 5805
1769, 1639, 1640, 1689, 1688, 5709, 5809, 5808, 5807
1770, 1640, 1641, 1690, 1689, 5711, 5811, 5810, 5809
1771, 1641, 1642, 1691, 1690, 5713, 5813, 5812, 5811
1772, 1642, 1643, 1692, 1691, 5715, 5815, 5814, 5813
1773, 1643, 1644, 1693, 1692, 5717, 5817, 5816, 5815
1774, 1644, 1645, 1694, 1693, 5719, 5819, 5818, 5817
1775, 1645, 1646, 1695, 1694, 5721, 5821, 5820, 5819
1776, 1646, 1647, 1696, 1695, 5723, 5823, 5822, 5821
1777, 1647, 1648, 1697, 1696, 5725, 5825, 5824, 5823
1778, 1648, 1649, 1698, 1697, 5727, 5827, 5826, 5825
1779, 1649, 1650, 1699, 1698, 5729, 5829, 5828, 5827
1780, 1650, 1651, 1700, 1699, 5731, 5831, 5830, 5829
1781, 1651, 1652, 1701, 1700, 5733, 5833, 5832, 5831
1782, 1652, 1653, 1702, 1701, 5735, 5835, 5834, 5833
1783, 1653, 1654, 1703, 1702, 5737, 5837, 5836, 5835
1784, 1654, 1655, 1704, 1703, 5739, 5839, 5838, 5837
1785, 1655, 1656, 1705, 1704, 5741, 5841, 5840, 5839
1786, 1656, 1657, 1706, 1705, 5743, 5843, 5842, 5841
1787, 1657, 1658, 1707, 1706, 5745, 5845, 5844, 5843
1788, 1658, 1659, 1708, 1707, 5747, 5847, 5846, 5845
1789, 1659, 1660, 1709, 1708, 5749, 5849, 5848, 5847
1790, 1660, 1661, 1710, 1709, 5751, 5851, 5850, 5849
1791, 1661, 1662, 1711, 1710, 5753, 5853, 5852, 5851
1792, 1662, 1663, 1712, 1711, 5755, 5855, 5854, 5853
1793, 1663, 1664, 1713, 1712, 5757, 5857, 5856, 5855
1794, 1664, 1665, 1714, 1713, 5759, 5859, 5858, 5857
1795, 1665, 1666, 1715, 1714, 5761, 5861, 5860, 5859
1796, 1666, 1667, 1716, 1715, 5763, 5863, 5862, 5861
1797, 1667, 1668, 1717, 1716, 5765, 5865, 5864, 5863
1798, 1668, 1669, 1718, 1717, 5767, 5867, 5866, 5865
1799, 1669, 1670, 1719, 1718, 5769, 5869, 5868, 5867
1800, 1670, 225, 224, 1719, 5771, 2826, 5870, 5869
1801, 138, 1671, 1720, 139, 5772, 5872, 5871, 2738
1802, 1671, 1672, 1721, 1720, 5774, 5874, 5873, 5872
1803, 1672, 1673, 1722, 1721, 5776, 5876, 5875, 5874
1804, 1673, 1674, 1723, 1722, 5778, 5878, 5877, 5876
1805, 1674, 1675, 1724, 1723, 5780, 5880, 5879, 5878
1806, 1675, 1676, 1725, 1724, 5782, 5882, 5881, 5880
1807, 1676, 1677, 1726, 1725, 5784, 5884, 5883, 5882
1808, 1677, 1678, 1727, 1726, 5786, 5886, 5885, 5884
1809, 1678, 1679, 1728, 1727, 5788, 5888, 5887, 5886
1810, 1679, 1680, 1729, 1728, 5790, 5890, 5889, 5888
1811, 1680, 1681, 1730, 1729, 5792, 5892, 5891, 5890
1812, 1681, 1682, 1731, 1730, 5794, 5894, 5893, 5892
1813, 1682, 1683, 1732, 1731, 5796, 5896, 5895, 5894
1814, 1683, 1684, 1733, 1732, 5798, 5898, 5897, 5896
1815, 1684, 1685, 1734, 1733, 5800, 5900, 5899, 5898
1816, 1685, 1686, 1735, 1734, 5802, 5902, 5901, 5900
1817, 1686, 1687, 1736, 1735, 5804, 5904, 5903, 5902
1818, 1687, 1688, 1737, 1736, 5806, 5906, 5905, 5904
1819, 1688, 1689, 1738, 1737, 5808, 5908, 5907, 5906
1820, 1689, 1690, 1739, 1738, 5810, 5910, 5909, 5908
1821, 1690, 1691, 1740, 1739, 5812, 5912, 5911, 5910
1822, 1691, 1692, 1741, 1740, 5814, 5914, 5913, 5912
1823, 1692, 1693, 1742, 1741, 5816, 5916, 5915, 5914
1824, 1693, 1694, 1743, 1742, 5818, 5918, 5917, 5916
1825, 1694, 1695, 1744, 1743, 5820, 5920, 5919, 5918
1826, 1695, 1696, 1745, 1744, 5822, 5922, 5921, 5920
1827, 1696, 1697, 1746, 1745, 5824, 5924, 5923, 5922
1828, 1697, 1698, 1747, 1746, 5826, 5926, 5925, 5924
1829, 1698, 1699, 1748, 1747, 5828, 5928, 5927, 5926
1830, 1699, 1700, 1749, 1748, 5830, 5930, 5929, 5928
1831, 1700, 1701, 1750, 1749, 5832, 5932, 5931, 5930
1832, 1701, 1702, 1751, 1750, 5834, 5934, 5933, 5932
1833, 1702, 1703, 1752, 1751, 5836, 5936, 5935, 5934
1834, 1703, 1704, 1753, 1752, 5838, 5938, 5937, 5936
1835, 1704, 1705, 1754, 1753, 5840, 5940, 5939, 5938
1836, 1705, 1706, 1755, 1754, 5842, 5942, 5941, 5940
1837, 1706, 1707, 1756, 1755, 5844, 5944, 5943, 5942
1838, 1707, 1708, 1757, 1756, 5846, 5946, 5945, 5944
1839, 1708, 1709, 1758, 1757, 5848, 5948, 5947, 5946
1840, 1709, 1710, 1759, 1758, 5850, 5950, 5949, 5948
1841, 1710, 1711, 1760, 1759, 5852, 5952, 5951, 5950
1842, 1711, 1712, 1761, 1760, 5854, 5954, 5953, 5952
1843, 1712, 1713, 1762, 1761, 5856, 5956, 5955, 5954
1844, 1713, 1714, 1763, 1762, 5858, 5958, 5957, 5956
1845, 1714, 1715, 1764, 1763, 5860, 5960, 5959, 5958
1846, 1715, 1716, 1765, 1764, 5862, 5962, 5961, 5960
1847, 1716, 1717, 1766, 1765, 5864, 5964, 5963, 5962
1848, 1717, 1718, 1767, 1766, 5866, 5966, 5965, 5964
1849, 1718, 1719, 1768, 1767, 5868, 5968, 5967, 5966
1850, 1719, 224, 223, 1768, 5870, 2825, 5969, 5968
1851, 139, 1720, 1769, 140, 5871, 5971, 5970, 2739
1852, 1720, 1721, 1770, 1769, 5873, 5973, 5972, 5971
1853, 1721, 1722, 1771, 1770, 5875, 5975, 5974, 5973
1854, 1722, 1723, 1772, 1771, 5877, 5977, 5976, 5975
1855, 1723, 1724, 1773, 1772, 5879, 5979, 5978, 5977
1856, 1724, 1725, 1774, 1773, 5881, 5981, 5980, 5979
1857, 1725, 1726, 1775, 1774, 5883, 5983, 5982, 5981
1858, 1726, 1727, 1776, 1775, 5885, 5985, 5984, 5983
1859, 1727, 1728, 1777, 1776, 5887, 5987, 5986, 5985
1860, 1728, 1729, 1778, 1777, 5889, 5989, 5988, 5987
1861, 1729, 1730, 1779, 1778, 5891, 5991, 5990, 5989
1862, 1730, 1731, 1780, 1779, 5893, 5993, 5992, 5991
1863, 1731, 1732, 1781, 1780, 5895, 5995, 5994, 5993
1864, 1732, 1733, 1782, 1781, 5897, 5997, 5996, 5995
1865, 1733, 1734, 1783, 1782, 5899, 5999, 5998, 5997
1866, 1734, 1735, 1784, 1783, 5901, 6001, 6000, 5999
1867, 1735, 1736, 1785, 1784, 5903, 6003, 6002, 6001
1868, 1736, 1737, 1786, 1785, 5905, 6005, 6004, 6003
1869, 1737, 1738, 1787, 1786, 5907, 6007, 6006, 6005
1870, 1738, 1739, 1788, 1787, 5909, 6009, 6008, 6007
1871, 1739, 1740, 1789, 1788, 5911, 6011, 6010, 6009
1872, 1740, 1741, 1790, 1789, 5913, 6013, 6012, 6011
1873, 1741, 1742, 1791, 1790, 5915, 6015, 6014, 6013
1874, 1742, 1743, 1792, 1791, 5917, 6017, 6016, 6015
1875, 1743, 1744, 1793, 1792, 5919, 6019, 6018, 6017
1876, 1744, 1745, 1794, 1793, 5921, 6021, 6020, 6019
1877, 1745, 1746, 1795, 1794, 5923, 6023, 6022, 6021
1878, 1746, 1747, 1796, 1795, 5925, 6025, 6024, 6023
1879, 1747, 1748, 1797, 1796, 5927, 6027, 6026, 6025
1880, 1748, 1749, 1798, 1797, 5929, 6029, 6028, 6027
1881, 1749, 1750, 1799, 1798, 5931, 6031, 6030, 6029
1882, 1750, 1751, 1800, 1799, 5933, 6033, 6032, 6031
1883, 1751, 1752, 1801, 1800, 5935, 6035, 6034, 6033
1884, 1752, 1753, 1802, 1801, 5937, 6037, 6036, 6035
1885, 1753, 1754, 1803, 1802, 5939, 6039, 6038, 6037
1886, 1754, 1755, 1804, 1803, 5941, 6041, 6040, 6039
1887, 1755, 1756, 1805, 1804, 5943, 6043, 6042, 6041
1888, 1756, 1757, 1806, 1805, 5945, 6045, 6044, 6043
1889, 1757, 1758, 1807, 1806, 5947, 6047, 6046, 6045
1890, 1758, 1759, 1808, 1807, 5949, 6049, 6048, 6047
1891, 1759, 1760, 1809, 1808, 5951, 6051, 6050, 6049
1892, 1760, 1761, 1810, 1809, 5953, 6053, 6052, 6051
1893, 1761, 1762, 1811, 1810, 5955, 6055, 6054, 6053
1894, 1762, 1763, 1812, 1811, 5957, 6057, 6056, 6055
1895, 1763, 1764, 1813, 1812, 5959, 6059, 6058, 6057
1896, 1764, 1765, 1814, 1813, 5961, 6061, 6060, 6059
1897, 1765, 1766, 1815, 1814, 5963, 6063, 6062, 6061
1898, 1766, 1767, 1816, 1815, 5965, 6065, 6064, 6063
1899, 1767, 1768, 1817, 1816, 5967, 6067, 6066, 6065
1900, 1768, 223, 222, 1817, 5969, 2824, 6068, 6067
1901, 140, 1769, 1818, 141, 5970, 6070, 6069, 2740
1902, 1769, 1770, 1819, 1818, 5972, 6072, 6071, 6070
1903, 1770, 1771, 1820, 1819, 5974, 6074, 6073, 6072
1904, 1771, 1772, 1821, 1820, 5976, 6076, 6075, 6074
1905, 1772, 1773, 1822, 1821, 5978, 6078, 6077, 6076
1906, 1773, 1774, 1823, 1822, 5980, 6080, 6079, 6078
1907, 1774, 1775, 1824, 1823, 5982, 6082, 6081, 6080
1908, 1775, 1776, 1825, 1824, 5984, 6084, 6083, 6082
1909, 1776, 1777, 1826, 1825, 5986, 6086, 6085, 6084
1910, 1777, 1778, 1827, 1826, 5988, 6088, 6087, 6086
1911, 1778, 1779, 1828, 1827, 5990, 6090, 6089, 6088
1912, 1779, 1780, 1829, 1828, 5992, 6092, 6091, 6090
1913, 1780, 1781, 1830, 1829, 5994, 6094, 6093, 6092
1914, 1781, 1782, 1831, 1830, 5996, 6096, 6095, 6094
1915, 1782, 1783, 1832, 1831, 5998, 6098, 6097, 6096
1916, 1783, 1784, 1833, 1832, 6000, 6100, 6099, 6098
1917, 1784, 1785, 1834, 1833, 6002, 6102, 6101, 6100
1918, 1785, 1786, 1835, 1834, 6004, 6104, 6103, 6102
1919, 1786, 1787, 1836, 1835, 6006, 6106, 6105, 6104
1920, 1787, 1788, 1837, 1836, 6008, 6108, 6107, 6106
1921, 1788, 1789, 1838, 1837, 6010, 6110, 6109, 6108
1922, 1789, 1790, 1839, 1838, 6012, 6112, 6111, 6110
1923, 1790, 1791, 1840, 1839, 6014, 6114, 6113, 6112
1924, 1791, 1792, 1841, 1840, 6016, 6116, 6115, 6114
1925, 1792, 1793, 1842, 1841, 6018, 6118, 6117, 6116
1926, 1793, 1794, 1843, 1842, 6020, 6120, 6119, 6118
1927, 1794, 1795, 1844, 1843, 6022, 6122, 6121, 6120
1928, 1795, 1796, 1845, 1844, 6024, 6124, 6123, 6122
1929, 1796, 1797, 1846, 1845, 6026, 6126, 6125, 6124
1930, 1797, 1798, 1847, 1846, 6028, 6128, 6127, 6126
1931, 1798, 1799, 1848, 1847, 6030, 6130, 6129, 6128
1932, 1799, 1800, 1849, 1848, 6032, 6132, 6131, 6130
1933, 1800, 1801, 1850, 1849, 6034, 6134, 6133, 6132
1934, 1801, 1802, 1851, 1850, 6036, 6136, 6135, 6134
1935, 1802, 1803, 1852, 1851, 6038, 6138, 6137, 6136
1936, 1803, 1804, 1853, 1852, 6040, 6140, 6139, 6138
1937, 1804, 1805, 1854, 1853, 6042, 6142, 6141, 6140
1938, 1805, 1806, 1855, 1854, 6044, 6144, 6143, 6142
1939, 1806, 1807, 1856, 1855, 6046, 6146, 6145, 6144
1940, 1807, 1808, 1857, 1856, 6048, 6148, 6147, 6146
1941, 1808, 1809, 1858, 1857, 6050, 6150, 6149, 6148
1942, 1809, 1810, 1859, 1858, 6052, 6152, 6151, 6150
1943, 1810, 1811, 1860, 1859, 6054, 6154, 6153, 6152
1944, 1811, 1812, 1861, 1860, 6056, 6156, 6155, 6154
1945, 1812, 1813, 1862, 1861, 6058, 6158, 6157, 6156
1946, 1813, 1814, 1863, 1862, 6060, 6160, 6159, 6158
1947, 1814, 1815, 1864, 1863, 6062, 6162, 6161, 6160
1948, 1815, 1816, 1865, 1864, 6064, 6164, 6163, 6162
1949, 1816, 1817, 1866, 1865, 6066, 6166, 6165, 6164
1950, 1817, 222, 221, 1866, 6068, 2823, 6167, 6166
1951, 141, 1818, 1867, 142, 6069, 6169, 6168, 2741
1952, 1818, 1819, 1868, 1867, 6071, 6171, 6170, 6169
1953, 1819, 1820, 1869, 1868, 6073, 6173, 6172, 6171
1954, 1820, 1821, 1870, 1869, 6075, 6175, 6174, 6173
1955, 1821, 1822, 1871, 1870, 6077, 6177, 6176, 6175
1956, 1822, 1823, 1872, 1871, 6079, 6179, 6178, 6177
1957, 1823, 1824, 1873, 1872, 6081, 6181, 6180, 6179
1958, 1824, 1825, 1874, 1873, 6083, 6183, 6182, 6181
1959, 1825, 1826, 1875, 1874, 6085, 6185, 6184, 6183
1960, 1826, 1827, 1876, 1875, 6087, 6187, 6186, 6185
1961, 1827, 1828, 1877, 1876, 6089, 6189, 6188, 6187
1962, 1828, 1829, 1878, 1877, 6091, 6191, 6190, 6189
1963, 1829, 1830, 1879, 1878, 6093, 6193, 6192, 6191
1964, 1830, 1831, 1880, 1879, 6095, 6195, 6194, 6193
1965, 1831, 1832, 1881, 1880, 6097, 6197, 6196, 6195
1966, 1832, 1833, 1882, 1881, 6099, 6199, 6198, 6197
1967, 1833, 1834, 1883, 1882, 6101, 6201, 6200, 6199
1968, 1834, 1835, 1884, 1883, 6103, 6203, 6202, 6201
1969, 1835, 1836, 1885, 1884, 6105, 6205, 6204, 6203
1970, 1836, 1837, 1886, 1885, 6107, 6207, 6206, 6205
1971, 1837, 1838, 1887, 1886, 6109, 6209, 6208, 6207
1972, 1838, 1839, 1888, 1887, 6111, 6211, 6210, 6209
1973, 1839, 1840, 1889, 1888, 6113, 6213, 6212, 6211
1974, 1840, 1841, 1890, 1889, 6115, 6215, 6214, 6213
1975, 1841, 1842, 1891, 1890, 6117, 6217, 6216, 6215
1976, 1842, 1843, 1892, 1891, 6119, 6219, 6218, 6217
1977, 1843, 1844, 1893, 1892, 6121, 6221, 6220, 6219
1978, 1844, 1845, 1894, 1893, 6123, 6223, 6222, 6221
1979, 1845, 1846, 1895, 1894, 6125, 6225, 6224, 6223
1980, 1846, 1847, 1896, 1895, 6127, 6227, 6226, 6225
1981, 1847, 1848, 1897, 1896, 6129, 6229, 6228, 6227
1982, 1848, 1849, 1898, 1897, 6131, 6231, 6230, 6229
1983, 1849, 1850, 1899, 1898, 6133, 6233, 6232, 6231
1984, 1850, 1851, 1900, 1899, 6135, 6235, 6234, 6233
1985, 1851, 1852, 1901, 1900, 6137, 6237, 6236, 6235
1986, 1852, 1853, 1902, 1901, 6139, 6239, 6238, 6237
1987, 1853, 1854, 1903, 1902, 6141, 6241, 6240, 6239
1988, 1854, 1855, 1904, 1903, 6143, 6243, 6242, 6241
1989, 1855, 1856, 1905, 1904, 6145, 6245, 6244, 6243
1990, 1856, 1857, 1906, 1905, 6147, 6247, 6246, 6245
1991, 1857, 1858, 1907, 1906, 6149, 6249, 6248, 6247
1992, 1858, 1859, 1908, 1907, 6151, 6251, 6250, 6249
1993, 1859, 1860, 1909, 1908, 6153, 6253, 6252, 6251
1994, 1860, 1861, 1910, 1909, 6155, 6255, 6254, 6253
1995, 1861, 1862, 1911, 1910, 6157, 6257, 6256, 6255
1996, 1862, 1863, 1912, 1911, 6159, 6259, 6258, 6257
1997, 1863, 1864, 1913, 1912, 6161, 6261, 6260, 6259
1998, 1864, 1865, 1914, 1913, 6163, 6263, 6262, 6261
1999, 1865, 1866, 1915, 1914, 6165, 6265, 6264, 6263
2000, 1866, 221, 220, 1915, 6167, 2822, 6266, 6265
2001, 142, 1867, 1916, 143, 6168, 6268, 6267, 2742
2002, 1867, 1868, 1917, 1916, 6170, 6270, 6269, 6268
2003, 1868, 1869, 1918, 1917, 6172, 6272, 6271, 6270
2004, 1869, 1870, 1919, 1918, 6174, 6274, 6273, 6272
2005, 1870, 1871, 1920, 1919, 6176, 6276, 6275, 6274
2006, 1871, 1872, 1921, 1920, 6178, 6278, 6277, 6276
2007, 1872, 1873, 1922, 1921, 6180, 6280, 6279, 6278
2008, 1873, 1874, 1923, 1922, 6182, 6282, 6281, 6280
2009, 1874, 1875, 1924, 1923, 6184, 6284, 6283, 6282
2010, 1875, 1876, 1925, 1924, 6186, 6286, 6285, 6284
2011, 1876, 1877, 1926, 1925, 6188, 6288, 6287, 6286
2012, 1877, 1878, 1927, 1926, 6190, 6290, 6289, 6288
2013, 1878, 1879, 1928, 1927, 6192, 6292, 6291, 6290
2014, 1879, 1880, 1929, 1928, 6194, 6294, 6293, 6292
2015, 1880, 1881, 1930, 1929, 6196, 6296, 6295, 6294
2016, 1881, 1882, 1931, 1930, 6198, 6298, 6297, 6296
2017, 1882, 1883, 1932, 1931, 6200, 6300, 6299, 6298
2018, 1883, 1884, 1933, 1932, 6202, 6302, 6301, 6300
2019, 1884, 1885, 1934, 1933, 6204, 6304, 6303, 6302
2020, 1885, 1886, 1935, 1934, 6206, 6306, 6305, 6304
2021, 1886, 1887, 1936, 1935, 6208, 6308, 6307, 6306
2022, 1887, 1888, 1937, 1936, 6210, 6310, 6309, 6308
2023, 1888, 1889, 1938, 1937, 6212, 6312, 6311, 6310
2024, 1889, 1890, 1939, 1938, 6214, 6314, 6313, 6312
2025, 1890, 1891, 1940, 1939, 6216, 6316, 6315, 6314
2026, 1891, 1892, 1941, 1940, 6218, 6318, 6317, 6316
2027, 1892, 1893, 1942, 1941, 6220, 6320, 6319, 6318
2028, 1893, 1894, 1943, 1942, 6222, 6322, 6321, 6320
2029, 1894, 1895, 1944, 1943, 6224, 6324, 6323, 6322
2030, 1895, 1896, 1945, 1944, 6226, 6326, 6325, 6324
2031, 1896, 1897, 1946, 1945, 6228, 6328, 6327, 6326
2032, 1897, 1898, 1947, 1946, 6230, 6330, 6329, 6328
2033, 1898, 1899, 1948, 1947, 6232, 6332, 6331, 6330
2034, 1899, 1900, 1949, 1948, 6234, 6334, 6333, 6332
2035, 1900, 1901, 1950, 1949, 6236, 6336, 6335, 6334
2036, 1901, 1902, 1951, 1950, 6238, 6338, 6337, 6336
2037, 1902, 1903, 1952, 1951, 6240, 6340, 6339, 6338
2038, 1903, 1904, 1953, 1952, 6242, 6342, 6341, 6340
2039, 1904, 1905, 1954, 1953, 6244, 6344, 6343, 6342
2040, 1905, 1906, 1955, 1954, 6246, 6346, 6345, 6344
2041, 1906, 1907, 1956, 1955, 6248, 6348, 6347, 6346
2042, 1907, 1908, 1957, 1956, 6250, 6350, 6349, 6348
2043, 1908, 1909, 1958, 1957, 6252, 6352, 6351, 6350
2044, 1909, 1910, 1959, 1958, 6254, 6354, 6353, 6352
2045, 1910, 1911, 1960, 1959, 6256, 6356, 6355, 6354
2046, 1911, 1912, 1961, 1960, 6258, 6358, 6357, 6356
2047, 1912, 1913, 1962, 1961, 6260, 6360, 6359, 6358
2048, 1913, 1914, 1963, 1962, 6262, 6362, 6361, 6360
2049, 1914, 1915, 1964, 1963, 6264, 6364, 6363, 6362
2050, 1915, 220, 219, 1964, 6266, 2821, 6365, 6364
2051, 143, 1916, 1965, 144, 6267, 6367, 6366, 2743
2052, 1916, 1917, 1966, 1965, 6269, 6369, 6368, 6367
2053, 1917, 1918, 1967, 1966, 6271, 6371, 6370, 6369
2054, 1918, 1919, 1968, 1967, 6273, 6373, 6372, 6371
2055, 1919, 1920, 1969, 1968, 6275, 6375, 6374, 6373
2056, 1920, 1921, 1970, 1969, 6277, 6377, 6376, 6375
2057, 1921, 1922, 1971, 1970, 6279, 6379, 6378, 6377
2058, 1922, 1923, 1972, 1971, 6281, 6381, 6380, 6379
2059, 1923, 1924, 1973, 1972, 6283, 6383, 6382, 6381
2060, 1924, 1925, 1974, 1973, 6285, 6385, 6384, 6383
2061, 1925, 1926, 1975, 1974, 6287, 6387, 6386, 6385
2062, 1926, 1927, 1976, 1975, 6289, 6389, 6388, 6387
2063, 1927, 1928, 1977, 1976, 6291, 6391, 6390, 6389
2064, 1928, 1929, 1978, 1977, 6293, 6393, 6392, 6391
2065, 1929, 1930, 1979, 1978, 6295, 6395, 6394, 6393
2066, 1930, 1931, 1980, 1979, 6297, 6397, 6396, 6395
2067, 1931, 1932, 1981, 1980, 6299, 6399, 6398, 6397
2068, 1932, 1933, 1982, 1981, 6301, 6401, 6400, 6399
2069, 1933, 1934, 1983, 1982, 6303, 6403, 6402, 6401
2070, 1934, 1935, 1984, 1983, 6305, 6405, 6404, 6403
2071, 1935, 1936, 1985, 1984, 6307, 6407, 6406, 6405
2072, 1936, 1937, 1986, 1985, 6309, 6409, 6408, 6407
2073, 1937, 1938, 1987, 1986, 6311, 6411, 6410, 6409
2074, 1938, 1939, 1988, 1987, 6313, 6413, 6412, 6411
2075, 1939, 1940, 1989, 1988, 6315, 6415, 6414, 6413
2076, 1940, 1941, 1990, 1989, 6317, 6417, 6416, 6415
2077, 1941, 1942, 1991, 1990, 6319, 6419, 6418, 6417
2078, 1942, 1943, 1992, 1991, 6321, 6421, 6420, 6419
2079, 1943, 1944, 1993, 1992, 6323, 6423, 6422, 6421
2080, 1944, 1945, 1994, 1993, 6325, 6425, 6424, 6423
2081, 1945, 1946, 1995, 1994, 6327, 6427, 6426, 6425
2082, 1946, 1947, 1996, 1995, 6329, 6429, 6428, 6427
2083, 1947, 1948, 1997, 1996, 6331, 6431, 6430, 6429
2084, 1948, 1949, 1998, 1997, 6333, 6433, 6432, 6431
2085, 1949, 1950, 1999, 1998, 6335, 6435, 6434, 6433
2086, 1950, 1951, 2000, 1999, 6337, 6437, 6436, 6435
2087, 1951, 1952, 2001, 2000, 6339, 6439, 6438, 6437
2088, 1952, 1953, 2002, 2001, 6341, 6441, 6440, 6439
2089, 1953, 1954, 2003, 2002, 6343, 6443, 6442, 6441
2090, 1954, 1955, 2004, 2003, 6345, 6445, 6444, 6443
2091, 1955, 1956, 2005, 2004, 6347, 6447, 6446, 6445
2092, 1956, 1957, 2006, 2005, 6349, 6449, 6448, 6447
2093, 1957, 1958, 2007, 2006, 6351, 6451, 6450, 6449
2094, 1958, 1959, 2008, 2007, 6353, 6453, 6452, 6451
2095, 1959, 1960, 2009, 2008, 6355, 6455, 6454, 6453
2096, 1960, 1961, 2010, 2009, 6357, 6457, 6456, 6455
2097, 1961, 1962, 2011, 2010, 6359, 6459, 6458, 6457
2098, 1962, 1963, 2012, 2011, 6361, 6461, 6460, 6459
2099, 1963, 1964, 2013, 2012, 6363, 6463, 6462, 6461
2100, 1964, 219, 218, 2013, 6365, 2820, 6464, 6463
2101, 144, 1965, 2014, 145, 6366, 6466, 6465, 2744
2102, 1965, 1966, 2015, 2014, 6368, 6468, 6467, 6466
2103, 1966, 1967, 2016, 2015, 6370, 6470, 6469, 6468
2104, 1967, 1968, 2017, 2016, 6372, 6472, 6471, 6470
2105, 1968, 1969, 2018, 2017, 6374, 6474, 6473, 6472
2106, 1969, 1970, 2019, 2018, 6376, 6476, 6475, 6474
2107, 1970, 1971, 2020, 2019, 6378, 6478, 6477, 6476
2108, 1971, 1972, 2021, 2020, 6380, 6480, 6479, 6478
2109, 1972, 1973, 2022, 2021, 6382, 6482, 6481, 6480
2110, 1973, 1974, 2023, 2022, 6384, 6484, 6483, 6482
2111, 1974, 1975, 2024, 2023, 6386, 6486, 6485, 6484
2112, 1975, 1976, 2025, 2024, 6388, 6488, 6487, 6486
2113, 1976, 1977, 2026, 2025, 6390, 6490, 6489, 6488
2114, 1977, 1978, 2027, 2026, 6392, 6492, 6491, 6490
2115, 1978, 1979, 2028, 2027, 6394, 6494, 6493, 6492
2116, 1979, 1980, 2029, 2028, 6396, 6496, 6495, 6494
2117, 1980, 1981, 2030, 2029, 6398, 6498, 6497, 6496
2118, 1981, 1982, 2031, 2030, 6400, 6500, 6499, 6498
2119, 1982, 1983, 2032, 2031, 6402, 6502, 6501, 6500
2120, 1983, 1984, 2033, 2032, 6404, 6504, 6503, 6502
2121, 1984, 1985, 2034, 2033, 6406, 6506, 6505, 6504
2122, 1985, 1986, 2035, 2034, 6408, 6508, 6507, 6506
2123, 1986, 1987, 2036, 2035, 6410, 6510, 6509, 6508
2124, 1987, 1988, 2037, 2036, 6412, 6512, 6511, 6510
2125, 1988, 1989, 2038, 2037, 6414, 6514, 6513, 6512
2126, 1989, 1990, 2039, 2038, 6416, 6516, 6515, 6514
2127, 1990, 1991, 2040, 2039, 6418, 6518, 6517, 6516
2128, 1991, 1992, 2041, 2040, 6420, 6520, 6519, 6518
2129, 1992, 1993, 2042, 2041, 6422, 6522, 6521, 6520
2130, 1993, 1994, 2043, 2042, 6424, 6524, 6523, 6522
2131, 1994, 1995, 2044, 2043, 6426, 6526, 6525, 6524
2132, 1995, 1996, 2045, 2044, 6428, 6528, 6527, 6526
2133, 1996, 1997, 2046, 2045, 6430, 6530, 6529, 6528
2134, 1997, 1998, 2047, 2046, 6432, 6532, 6531, 6530
2135, 1998, 1999, 2048, 2047, 6434, 6534, 6533, 6532
2136, 1999, 2000, 2049, 2048, 6436, 6536, 6535, 6534
2137, 2000, 2001, 2050, 2049, 6438, 6538, 6537, 6536
2138, 2001, 2002, 2051, 2050, 6440, 6540, 6539, 6538
2139, 2002, 2003, 2052, 2051, 6442, 6542, 6541, 6540
2140, 2003, 2004, 2053, 2052, 6444, 6544, 6543, 6542
2141, 2004, 2005, 2054, 2053, 6446, 6546, 6545, 6544
2142, 2005, 2006, 2055, 2054, 6448, 6548, 6547, 6546
2143, 2006, 2007, 2056, 2055, 6450, 6550, 6549, 6548
2144, 2007, 2008, 2057, 2056, 6452, 6552, 6551, 6550
2145, 2008, 2009, 2058, 2057, 6454, 6554, 6553, 6552
2146, 2009, 2010, 2059, 2058, 6456, 6556, 6555, 6554
2147, 2010, 2011, 2060, 2059, 6458, 6558, 6557, 6556
2148, 2011, 2012, 2061, 2060, 6460, 6560, 6559, 6558
2149, 2012, 2013, 2062, 2061, 6462, 6562, 6561, 6560
2150, 2013, 218, 217, 2062, 6464, 2819, 6563, 6562
2151, 145, 2014, 2063, 146, 6465, 6565, 6564, 2745
2152, 2014, 2015, 2064, 2063, 6467, 6567, 6566, 6565
2153, 2015, 2016, 2065, 2064, 6469, 6569, 6568, 6567
2154, 2016, 2017, 2066, 2065, 6471, 6571, 6570, 6569
2155, 2017, 2018, 2067, 2066, 6473, 6573, 6572, 6571
2156, 2018, 2019, 2068, 2067, 6475, 6575, 6574, 6573
2157, 2019, 2020, 2069, 2068, 6477, 6577, 6576, 6575
2158, 2020, 2021, 2070, 2069, 6479, 6579, 6578, 6577
2159, 2021, 2022, 2071, 2070, 6481, 6581, 6580, 6579
2160, 2022, 2023, 2072, 2071, 6483, 6583, 6582, 6581
2161, 2023, 2024, 2073, 2072, 6485, 6585, 6584, 6583
2162, 2024, 2025, 2074, 2073, 6487, 6587, 6586, 6585
2163, 2025, 2026, 2075, 2074, 6489, 6589, 6588, 6587
2164, 2026, 2027, 2076, 2075, 6491, 6591, 6590, 6589
2165, 2027, 2028, 2077, 2076, 6493, 6593, 6592, 6591
2166, 2028, 2029, 2078, 2077, 6495, 6595, 6594, 6593
2167, 2029, 2030, 2079, 2078, 6497, 6597, 6596, 6595
2168, 2030, 2031, 2080, 2079, 6499, 6599, 6598, 6597
2169, 2031, 2032, 2081, 2080, 6501, 6601, 6600, 6599
2170, 2032, 2033, 2082, 2081, 6503, 6603, 6602, 6601
2171, 2033, 2034, 2083, 2082, 6505, 6605, 6604, 6603
2172, 2034, 2035, 2084, 2083, 6507, 6607, 6606, 6605
2173, 2035, 2036, 2085, 2084, 6509, 6609, 6608, 6607
2174, 2036, 2037, 2086, 2085, 6511, 6611, 6610, 6609
2175, 2037, 2038, 2087, 2086, 6513, 6613, 6612, 6611
2176, 2038, 2039, 2088, 2087, 6515, 6615, 6614, 6613
2177, 2039, 2040, 2089, 2088, 6517, 6617, 6616, 6615
2178, 2040, 2041, 2090, 2089, 6519, 6619, 6618, 6617
2179, 2041, 2042, 2091, 2090, 6521, 6621, 6620, 6619
2180, 2042, 2043, 2092, 2091, 6523, 6623, 6622, 6621
2181, 2043, 2044, 2093, 2092, 6525, 6625, 6624, 6623
2182, 2044, 2045, 2094, 2093, 6527, 6627, 6626, 6625
2183, 2045, 2046, 2095, 2094, 6529, 6629, 6628, 6627
2184, 2046, 2047, 2096, 2095, 6531, 6631, 6630, 6629
2185, 2047, 2048, 2097, 2096, 6533, 6633, 6632, 6631
2186, 2048, 2049, 2098, 2097, 6535, 6635, 6634, 6633
2187, 2049, 2050, 2099, 2098, 6537, 6637, 6636, 6635
2188, 2050, 2051, 2100, 2099, 6539, 6639, 6638, 6637
2189, 2051, 2052, 2101, 2100, 6541, 6641, 6640, 6639
2190, 2052, 2053, 2102, 2101, 6543, 6643, 6642, 6641
2191, 2053, 2054, 2103, 2102, 6545, 6645, 6644, 6643
2192, 2054, 2055, 2104, 2103, 6547, 6647, 6646, 6645
2193, 2055, 2056, 2105, 2104, 6549, 6649, 6648, 6647
2194, 2056, 2057, 2106, 2105, 6551, 6651, 6650, 6649
2195, 2057, 2058, 2107, 2106, 6553, 6653, 6652, 6651
2196, 2058, 2059, 2108, 2107, 6555, 6655, 6654, 6653
2197, 2059, 2060, 2109, 2108, 6557, 6657, 6656, 6655
2198, 2060, 2061, 2110, 2109, 6559, 6659, 6658, 6657
2199, 2061, 2062, 2111, 2110, 6561, 6661, 6660, 6659
2200, 2062, 217, 216, 2111, 6563, 2818, 6662, 6661
2201, 146, 2063, 2112, 147, 6564, 6664, 6663, 2746
2202, 2063, 2064, 2113, 2112, 6566, 6666, 6665, 6664
2203, 2064, 2065, 2114, 2113, 6568, 6668, 6667, 6666
2204, 2065, 2066, 2115, 2114, 6570, 6670, 6669, 6668
2205, 2066, 2067, 2116, 2115, 6572, 6672, 6671, 6670
2206, 2067, 2068, 2117, 2116, 6574, 6674, 6673, 6672
2207, 2068, 2069, 2118, 2117, 6576, 6676, 6675, 6674
2208, 2069, 2070, 2119, 2118, 6578, 6678, 6677, 6676
2209, 2070, 2071, 2120, 2119, 6580, 6680, 6679, 6678
2210, 2071, 2072, 2121, 2120, 6582, 6682, 6681, 6680
2211, 2072, 2073, 2122, 2121, 6584, 6684, 6683, 6682
2212, 2073, 2074, 2123, 2122, 6586, 6686, 6685, 6684
2213, 2074, 2075, 2124, 2123, 6588, 6688, 6687, 6686
2214, 2075, 2076, 2125, 2124, 6590, 6690, 6689, 6688
2215, 2076, 2077, 2126, 2125, 6592, 6692, 6691, 6690
2216, 2077, 2078, 2127, 2126, 6594, 6694, 6693, 6692
2217, 2078, 2079, 2128, 2127, 6596, 6696, 6695, 6694
2218, 2079, 2080, 2129, 2128, 6598, 6698, 6697, 6696
2219, 2080, 2081, 2130, 2129, 6600, 6700, 6699, 6698
2220, 2081, 2082, 2131, 2130, 6602, 6702, 6701, 6700
2221, 2082, 2083, 2132, 2131, 6604, 6704, 6703, 6702
2222, 2083, 2084, 2133, 2132, 6606, 6706, 6705, 6704
2223, 2084, 2085, 2134, 2133, 6608, 6708, 6707, 6706
2224, 2085, 2086, 2135, 2134, 6610, 6710, 6709, 6708
2225, 2086, 2087, 2136, 2135, 6612, 6712, 6711, 6710
2226, 2087, 2088, 2137, 2136, 6614, 6714, 6713, 6712
2227, 2088, 2089, 2138, 2137, 6616, 6716, 6715, 6714
2228, 2089, 2090, 2139, 2138, 6618, 6718, 6717, 6716
2229, 2090, 2091, 2140, 2139, 6620, 6720, 6719, 6718
2230, 2091, 2092, 2141, 2140, 6622, 6722, 6721, 6720
2231, 2092, 2093, 2142, 2141, 6624, 6724, 6723, 6722
2232, 2093, 2094, 2143, 2142, 6626, 6726, 6725, 6724
2233, 2094, 2095, 2144, 2143, 6628, 6728, 6727, 6726
2234, 2095, 2096, 2145, 2144, 6630, 6730, 6729, 6728
2235, 2096, 2097, 2146, 2145, 6632, 6732, 6731, 6730
2236, 2097, 2098, 2147, 2146, 6634, 6734, 6733, 6732
2237, 2098, 2099, 2148, 2147, 6636, 6736, 6735, 6734
2238, 2099, 2100, 2149, 2148, 6638, 6738, 6737, 6736
2239, 2100, 2101, 2150, 2149, 6640, 6740, 6739, 6738
2240, 2101, 2102, 2151, 2150, 6642, 6742, 6741, 6740
2241, 2102, 2103, 2152, 2151, 6644, 6744, 6743, 6742
2242, 2103, 2104, 2153, 2152, 6646, 6746, 6745, 6744
2243, 2104, 2105, 2154, 2153, 6648, 6748, 6747, 6746
2244, 2105, 2106, 2155, 2154, 6650, 6750, 6749, 6748
2245, 2106, 2107, 2156, 2155, 6652, 6752, 6751, 6750
2246, 2107, 2108, 2157, 2156, 6654, 6754, 6753, 6752
2247, 2108, 2109, 2158, 2157, 6656, 6756, 6755, 6754
2248, 2109, 2110, 2159, 2158, 6658, 6758, 6757, 6756
2249, 2110, 2111, 2160, 2159, 6660, 6760, 6759, 6758
2250, 2111, 216, 215, 2160, 6662, 2817, 6761, 6760
2251, 147, 2112, 2161, 148, 6663, 6763, 6762, 2747
2252, 2112, 2113, 2162, 2161, 6665, 6765, 6764, 6763
2253, 2113, 2114, 2163, 2162, 6667, 6767, 6766, 6765
2254, 2114, 2115, 2164, 2163, 6669, 6769, 6768, 6767
2255, 2115, 2116, 2165, 2164, 6671, 6771, 6770, 6769
2256, 2116, 2117, 2166, 2165, 6673, 6773, 6772, 6771
2257, 2117, 2118, 2167, 2166, 6675, 6775, 6774, 6773
2258, 2118, 2119, 2168, 2167, 6677, 6777, 6776, 6775
2259, 2119, 2120, 2169, 2168, 6679, 6779, 6778, 6777
2260, 2120, 2121, 2170, 2169, 6681, 6781, 6780, 6779
2261, 2121, 2122, 2171, 2170, 6683, 6783, 6782, 6781
2262, 2122, 2123, 2172, 2171, 6685, 6785, 6784, 6783
2263, 2123, 2124, 2173, 2172, 6687, 6787, 6786, 6785
2264, 2124, 2125, 2174, 2173, 6689, 6789, 6788, 6787
2265, 2125, 2126, 2175, 2174, 6691, 6791, 6790, 6789
2266, 2126, 2127, 2176, 2175, 6693, 6793, 6792, 6791
2267, 2127, 2128, 2177, 2176, 6695, 6795, 6794, 6793
2268, 2128, 2129, 2178, 2177, 6697, 6797, 6796, 6795
2269, 2129, 2130, 2179, 2178, 6699, 6799, 6798, 6797
2270, 2130, 2131, 2180, 2179, 6701, 6801, 6800, 6799
2271, 2131, 2132, 2181, 2180, 6703, 6803, 6802, 6801
2272, 2132, 2133, 2182, 2181, 6705, 6805, 6804, 6803
2273, 2133, 2134, 2183, 2182, 6707, 6807, 6806, 6805
2274, 2134, 2135, 2184, 2183, 6709, 6809, 6808, 6807
2275, 2135, 2136, 2185, 2184, 6711, 6811, 6810, 6809
2276, 2136, 2137, 2186, 2185, 6713, 6813, 6812, 6811
2277, 2137, 2138, 2187, 2186, 6715, 6815, 6814, 6813
2278, 2138, 2139, 2188, 2187, 6717, 6817, 6816, 6815
2279, 2139, 2140, 2189, 2188, 6719, 6819, 6818, 6817
2280, 2140, 2141, 2190, 2189, 6721, 6821, 6820, 6819
2281, 2141, 2142, 2191, 2190, 6723, 6823, 6822, 6821
2282, 2142, 2143, 2192, 2191, 6725, 6825, 6824, 6823
2283, 2143, 2144, 2193, 2192, 6727, 6827, 6826, 6825
2284, 2144, 2145, 2194, 2193, 6729, 6829, 6828, 6827
2285, 2145, 2146, 2195, 2194, 6731, 6831, 6830, 6829
2286, 2146, 2147, 2196, 2195, 6733, 6833, 6832, 6831
2287, 2147, 2148, 2197, 2196, 6735, 6835, 6834, 6833
2288, 2148, 2149, 2198, 2197, 6737, 6837, 6836, 6835
2289, 2149, 2150, 2199, 2198, 6739, 6839, 6838, 6837
2290, 2150, 2151, 2200, 2199, 6741, 6841, 6840, 6839
2291, 2151, 2152, 2201, 2200, 6743, 6843, 6842, 6841
2292, 2152, 2153, 2202, 2201, 6745, 6845, 6844, 6843
2293, 2153, 2154, 2203, 2202, 6747, 6847, 6846, 6845
2294, 2154, 2155, 2204, 2203, 6749, 6849, 6848, 6847
2295, 2155, 2156, 2205, 2204, 6751, 6851, 6850, 6849
2296, 2156, 2157, 2206, 2205, 6753, 6853, 6852, 6851
2297, 2157, 2158, 2207, 2206, 6755, 6855, 6854, 6853
2298, 2158, 2159, 2208, 2207, 6757, 6857, 6856, 6855
2299, 2159, 2160, 2209, 2208, 6759, 6859, 6858, 6857
2300, 2160, 215, 214, 2209, 6761, 2816, 6860, 6859
2301, 148, 2161, 2210, 149, 6762, 6862, 6861, 2748
2302, 2161, 2162, 2211, 2210, 6764, 6864, 6863, 6862
2303, 2162, 2163, 2212, 2211, 6766, 6866, 6865, 6864
2304, 2163, 2164, 2213, 2212, 6768, 6868, 6867, 6866
2305, 2164, 2165, 2214, 2213, 6770, 6870, 6869, 6868
2306, 2165, 2166, 2215, 2214, 6772, 6872, 6871, 6870
2307, 2166, 2167, 2216, 2215, 6774, 6874, 6873, 6872
2308, 2167, 2168, 2217, 2216, 6776, 6876, 6875, 6874
2309, 2168, 2169, 2218, 2217, 6778, 6878, 6877, 6876
2310, 2169, 2170, 2219, 2218, 6780, 6880, 6879, 6878
2311, 2170, 2171, 2220, 2219, 6782, 6882, 6881, 6880
2312, 2171, 2172, 2221, 2220, 6784, 6884, 6883, 6882
2313, 2172, 2173, 2222, 2221, 6786, 6886, 6885, 6884
2314, 2173, 2174, 2223, 2222, 6788, 6888, 6887, 6886
2315, 2174, 2175, 2224, 2223, 6790, 6890, 6889, 6888
2316, 2175, 2176, 2225, 2224, 6792, 6892, 6891, 6890
2317, 2176, 2177, 2226, 2225, 6794, 6894, 6893, 6892
2318, 2177, 2178, 2227, 2226, 6796, 6896, 6895, 6894
2319, 2178, 2179, 2228, 2227, 6798, 6898, 6897, 6896
2320, 2179, 2180, 2229, 2228, 6800, 6900, 6899, 6898
2321, 2180, 2181, 2230, 2229, 6802, 6902, 6901, 6900
2322, 2181, 2182, 2231, 2230, 6804, 6904, 6903, 6902
2323, 2182, 2183, 2232, 2231, 6806, 6906, 6905, 6904
2324, 2183, 2184, 2233, 2232, 6808, 6908, 6907, 6906
2325, 2184, 2185, 2234, 2233, 6810, 6910, 6909, 6908
2326, 2185, 2186, 2235, 2234, 6812, 6912, 6911, 6910
2327, 2186, 2187, 2236, 2235, 6814, 6914, 6913, 6912
2328, 2187, 2188, 2237, 2236, 6816, 6916, 6915, 6914
2329, 2188, 2189, 2238, 2237, 6818, 6918, 6917, 6916
2330, 2189, 2190, 2239, 2238, 6820, 6920, 6919, 6918
2331, 2190, 2191, 2240, 2239, 6822, 6922, 6921, 6920
2332, 2191, 2192, 2241, 2240, 6824, 6924, 6923, 6922
2333, 2192, 2193, 2242, 2241, 6826, 6926, 6925, 6924
2334, 2193, 2194, 2243, 2242, 6828, 6928, 6927, 6926
2335, 2194, 2195, 2244, 2243, 6830, 6930, 6929, 6928
2336, 2195, 2196, 2245, 2244, 6832, 6932, 6931, 6930
2337, 2196, 2197, 2246, 2245, 6834, 6934, 6933, 6932
2338, 2197, 2198, 2247, 2246, 6836, 6936, 6935, 6934
2339, 2198, 2199, 2248, 2247, 6838, 6938, 6937, 6936
2340, 2199, 2200, 2249, 2248, 6840, 6940, 6939, 6938
2341, 2200, 2201, 2250, 2249, 6842, 6942, 6941, 6940
2342, 2201, 2202, 2251, 2250, 6844, 6944, 6943, 6942
2343, 2202, 2203, 2252, 2251, 6846, 6946, 6945, 6944
2344, 2203, 2204, 2253, 2252, 6848, 6948, 6947, 6946
2345, 2204, 2205, 2254, 2253, 6850, 6950, 6949, 6948
2346, 2205, 2206, 2255, 2254, 6852, 6952, 6951, 6950
2347, 2206, 2207, 2256, 2255, 6854, 6954, 6953, 6952
2348, 2207, 2208, 2257, 2256, 6856, 6956, 6955, 6954
2349, 2208, 2209, 2258, 2257, 6858, 6958, 6957, 6956
2350, 2209, 214, 213, 2258, 6860, 2815, 6959, 6958
2351, 149, 2210, 2259, 150, 6861, 6961, 6960, 2749
2352, 2210, 2211, 2260, 2259, 6863, 6963, 6962, 6961
2353, 2211, 2212, 2261, 2260, 6865, 6965, 6964, 6963
2354, 2212, 2213, 2262, 2261, 6867, 6967, 6966, 6965
2355, 2213, 2214, 2263, 2262, 6869, 6969, 6968, 6967
2356, 2214, 2215, 2264, 2263, 6871, 6971, 6970, 6969
2357, 2215, 2216, 2265, 2264, 6873, 6973, 6972, 6971
2358, 2216, 2217, 2266, 2265, 6875, 6975, 6974, 6973
2359, 2217, 2218, 2267, 2266, 6877, 6977, 6976, 6975
2360, 2218, 2219, 2268, 2267, 6879, 6979, 6978, 6977
2361, 2219, 2220, 2269, 2268, 6881, 6981, 6980, 6979
2362, 2220, 2221, 2270, 2269, 6883, 6983, 6982, 6981
2363, 2221, 2222, 2271, 2270, 6885, 6985, 6984, 6983
2364, 2222, 2223, 2272, 2271, 6887, 6987, 6986, 6985
2365, 2223, 2224, 2273, 2272, 6889, 6989, 6988, 6987
2366, 2224, 2225, 2274, 2273, 6891, 6991, 6990, 6989
2367, 2225, 2226, 2275, 2274, 6893, 6993, 6992, 6991
2368, 2226, 2227, 2276, 2275, 6895, 6995, 6994, 6993
2369, 2227, 2228, 2277, 2276, 6897, 6997, 6996, 6995
2370, 2228, 2229, 2278, 2277, 6899, 6999, 6998, 6997
2371, 2229, 2230, 2279, 2278, 6901, 7001, 7000, 6999
2372, 2230, 2231, 2280, 2279, 6903, 7003, 7002, 7001
2373, 2231, 2232, 2281, 2280, 6905, 7005, 7004, 7003
2374, 2232, 2233, 2282, 2281, 6907, 7007, 7006, 7005
2375, 2233, 2234, 2283, 2282, 6909, 7009, 7008, 7007
2376, 2234, 2235, 2284, 2283, 6911, 7011, 7010, 7009
2377, 2235, 2236, 2285, 2284, 6913, 7013, 7012, 7011
2378, 2236, 2237, 2286, 2285, 6915, 7015, 7014, 7013
2379, 2237, 2238, 2287, 2286, 6917, 7017, 7016, 7015
2380, 2238, 2239, 2288, 2287, 6919, 7019, 7018, 7017
2381, 2239, 2240, 2289, 2288, 6921, 7021, 7020, 7019
2382, 2240, 2241, 2290, 2289, 6923, 7023, 7022, 7021
2383, 2241, 2242, 2291, 2290, 6925, 7025, 7024, 7023
2384, 2242, 2243, 2292, 2291, 6927, 7027, 7026, 7025
2385, 2243, 2244, 2293, 2292, 6929, 7029, 7028, 7027
2386, 2244, 2245, 2294, 2293, 6931, 7031, 7030, 7029
2387, 2245, 2246, 2295, 2294, 6933, 7033, 7032, 7031
2388, 2246, 2247, 2296, 2295, 6935, 7035, 7034, 7033
2389, 2247, 2248, 2297, 2296, 6937, 7037, 7036, 7035
2390, 2248, 2249, 2298, 2297, 6939, 7039, 7038, 7037
2391, 2249, 2250, 2299, 2298, 6941, 7041, 7040, 7039
2392, 2250, 2251, 2300, 2299, 6943, 7043, 7042, 7041
2393, 2251, 2252, 2301, 2300, 6945, 7045, 7044, 7043
2394, 2252, 2253, 2302, 2301, 6947, 7047, 7046, 7045
2395, 2253, 2254, 2303, 2302, 6949, 7049, 7048, 7047
2396, 2254, 2255, 2304, 2303, 6951, 7051, 7050, 7049
2397, 2255, 2256, 2305, 2304, 6953, 7053, 7052, 7051
2398, 2256, 2257, 2306, 2305, 6955, 7055, 7054, 7053
2399, 2257, 2258, 2307, 2306, 6957, 7057, 7056, 7055
2400, 2258, 213, 212, 2307, 6959, 2814, 7058, 7057
2401, 150, 2259, 2308, 151, 6960, 7060, 7059, 2750
2402, 2259, 2260, 2309, 2308, 6962, 7062, 7061, 7060
2403, 2260, 2261, 2310, 2309, 6964, 7064, 7063, 7062
2404, 2261, 2262, 2311, 2310, 6966, 7066, 7065, 7064
2405, 2262, 2263, 2312, 2311, 6968, 7068, 7067, 7066
2406, 2263, 2264, 2313, 2312, 6970, 7070, 7069, 7068
2407, 2264, 2265, 2314, 2313, 6972, 7072, 7071, 7070
2408, 2265, 2266, 2315, 2314, 6974, 7074, 7073, 7072
2409, 2266, 2267, 2316, 2315, 6976, 7076, 7075, 7074
2410, 2267, 2268, 2317, 2316, 6978, 7078, 7077, 7076
2411, 2268, 2269, 2318, 2317, 6980, 7080, 7079, 7078
2412, 2269, 2270, 2319, 2318, 6982, 7082, 7081, 7080
2413, 2270, 2271, 2320, 2319, 6984, 7084, 7083, 7082
2414, 2271, 2272, 2321, 2320, 6986, 7086, 7085, 7084
2415, 2272, 2273, 2322, 2321, 6988, 7088, 7087, 7086
2416, 2273, 2274, 2323, 2322, 6990, 7090, 7089, 7088
2417, 2274, 2275, 2324, 2323, 6992, 7092, 7091, 7090
2418, 2275, 2276, 2325, 2324, 6994, 7094, 7093, 7092
2419, 2276, 2277, 2326, 2325, 6996, 7096, 7095, 7094
2420, 2277, 2278, 2327, 2326, 6998, 7098, 7097, 7096
2421, 2278, 2279, 2328, 2327, 7000, 7100, 7099, 7098
2422, 2279, 2280, 2329, 2328, 7002, 7102, 7101, 7100
2423, 2280, 2281, 2330, 2329, 7004, 7104, 7103, 7102
2424, 2281, 2282, 2331, 2330, 7006, 7106, 7105, 7104
2425, 2282, 2283, 2332, 2331, 7008, 7108, 7107, 7106
2426, 2283, 2284, 2333, 2332, 7010, 7110, 7109, 7108
2427, 2284, 2285, 2334, 2333, 7012, 7112, 7111, 7110
2428, 2285, 2286, 2335, 2334, 7014, 7114, 7113, 7112
2429, 2286, 2287, 2336, 2335, 7016, 7116, 7115, 7114
2430, 2287, 2288, 2337, 2336, 7018, 7118, 7117, 7116
2431, 2288, 2289, 2338, 2337, 7020, 7120, 7119, 7118
2432, 2289, 2290, 2339, 2338, 7022, 7122, 7121, 7120
2433, 2290, 2291, 2340, 2339, 7024, 7124, 7123, 7122
2434, 2291, 2292, 2341, 2340, 7026, 7126, 7125, 7124
2435, 2292, 2293, 2342, 2341, 7028, 7128, 7127, 7126
2436, 2293, 2294, 2343, 2342, 7030, 7130, 7129, 7128
2437, 2294, 2295, 2344, 2343, 7032, 7132, 7131, 7130
2438, 2295, 2296, 2345, 2344, 7034, 7134, 7133, 7132
2439, 2296, 2297, 2346, 2345, 7036, 7136, 7135, 7134
2440, 2297, 2298, 2347, 2346, 7038, 7138, 7137, 7136
2441, 2298, 2299, 2348, 2347, 7040, 7140, 7139, 7138
2442, 2299, 2300, 2349, 2348, 7042, 7142, 7141, 7140
2443, 2300, 2301, 2350, 2349, 7044, 7144, 7143, 7142
2444, 2301, 2302, 2351, 2350, 7046, 7146, 7145, 7144
2445, 2302, 2303, 2352, 2351, 7048, 7148, 7147, 7146
2446, 2303, 2304, 2353, 2352, 7050, 7150, 7149, 7148
2447, 2304, 2305, 2354, 2353, 7052, 7152, 7151, 7150
2448, 2305, 2306, 2355, 2354, 7054, 7154, 7153, 7152
2449, 2306, 2307, 2356, 2355, 7056, 7156, 7155, 7154
2450, 2307, 212, 211, 2356, 7058, 2813, 7157, 7156
2451, 151, 2308, 2357, 152, 7059, 7159, 7158, 2751
2452, 2308, 2309, 2358, 2357, 7061, 7161, 7160, 7159
2453, 2309, 2310, 2359, 2358, 7063, 7163, 7162, 7161
2454, 2310, 2311, 2360, 2359, 7065, 7165, 7164, 7163
2455, 2311, 2312, 2361, 2360, 7067, 7167, 7166, 7165
2456, 2312, 2313, 2362, 2361, 7069, 7169, 7168, 7167
2457, 2313, 2314, 2363, 2362, 7071, 7171, 7170, 7169
2458, 2314, 2315, 2364, 2363, 7073, 7173, 7172, 7171
2459, 2315, 2316, 2365, 2364, 7075, 7175, 7174, 7173
2460, 2316, 2317, 2366, 2365, 7077, 7177, 7176, 7175
2461, 2317, 2318, 2367, 2366, 7079, 7179, 7178, 7177
2462, 2318, 2319, 2368, 2367, 7081, 7181, 7180, 7179
2463, 2319, 2320, 2369, 2368, 7083, 7183, 7182, 7181
2464, 2320, 2321, 2370, 2369, 7085, 7185, 7184, 7183
2465, 2321, 2322, 2371, 2370, 7087, 7187, 7186, 7185
2466, 2322, 2323, 2372, 2371, 7089, 7189, 7188, 7187
2467, 2323, 2324, 2373, 2372, 7091, 7191, 7190, 7189
2468, 2324, 2325, 2374, 2373, 7093, 7193, 7192, 7191
2469, 2325, 2326, 2375, 2374, 7095, 7195, 7194, 7193
2470, 2326, 2327, 2376, 2375, 7097, 7197, 7196, 7195
2471, 2327, 2328, 2377, 2376, 7099, 7199, 7198, 7197
2472, 2328, 2329, 2378, 2377, 7101, 7201, 7200, 7199
2473, 2329, 2330, 2379, 2378, 7103, 7203, 7202, 7201
2474, 2330, 2331, 2380, 2379, 7105, 7205, 7204, 7203
2475, 2331, 2332, 2381, 2380, 7107, 7207, 7206, 7205
2476, 2332, 2333, 2382, 2381, 7109, 7209, 7208, 7207
2477, 2333, 2334, 2383, 2382, 7111, 7211, 7210, 7209
2478, 2334, 2335, 2384, 2383, 7113, 7213, 7212, 7211
2479, 2335, 2336, 2385, 2384, 7115, 7215, 7214, 7213
2480, 2336, 2337, 2386, 2385, 7117, 7217, 7216, 7215
2481, 2337, 2338, 2387, 2386, 7119, 7219, 7218, 7217
2482, 2338, 2339, 2388, 2387, 7121, 7221, 7220, 7219
2483, 2339, 2340, 2389, 2388, 7123, 7223, 7222, 7221
2484, 2340, 2341, 2390, 2389, 7125, 7225, 7224, 7223
2485, 2341, 2342, 2391, 2390, 7127, 7227, 7226, 7225
2486, 2342, 2343, 2392, 2391, 7129, 7229, 7228, 7227
2487, 2343, 2344, 2393, 2392, 7131, 7231, 7230, 7229
2488, 2344, 2345, 2394, 2393, 7133, 7233, 7232, 7231
2489, 2345, 2346, 2395, 2394, 7135, 7235, 7234, 7233
2490, 2346, 2347, 2396, 2395, 7137, 7237, 7236, 7235
2491, 2347, 2348, 2397, 2396, 7139, 7239, 7238, 7237
2492, 2348, 2349, 2398, 2397, 7141, 7241, 7240, 7239
2493, 2349, 2350, 2399, 2398, 7143, 7243, 7242, 7241
2494, 2350, 2351, 2400, 2399, 7145, 7245, 7244, 7243
2495, 2351, 2352, 2401, 2400, 7147, 7247, 7246, 7245
2496, 2352, 2353, 2402, 2401, 7149, 7249, 7248, 7247
2497, 2353, 2354, 2403, 2402, 7151, 7251, 7250, 7249
2498, 2354, 2355, 2404, 2403, 7153, 7253, 7252, 7251
2499, 2355, 2356, 2405, 2404, 7155, 7255, 7254, 7253
2500, 2356, 211, 210, 2405, 7157, 2812, 7256, 7255
2501, 152, 2357, 2406, 153, 7158, 7258, 7257, 2752
2502, 2357, 2358, 2407, 2406, 7160, 7260, 7259, 7258
2503, 2358, 2359, 2408, 2407, 7162, 7262, 7261, 7260
2504, 2359, 2360, 2409, 2408, 7164, 7264, 7263, 7262
2505, 2360, 2361, 2410, 2409, 7166, 7266, 7265, 7264
2506, 2361, 2362, 2411, 2410, 7168, 7268, 7267, 7266
2507, 2362, 2363, 2412, 2411, 7170, 7270, 7269, 7268
2508, 2363, 2364, 2413, 2412, 7172, 7272, 7271, 7270
2509, 2364, 2365, 2414, 2413, 7174, 7274, 7273, 7272
2510, 2365, 2366, 2415, 2414, 7176, 7276, 7275, 7274
2511, 2366, 2367, 2416, 2415, 7178, 7278, 7277, 7276
2512, 2367, 2368, 2417, 2416, 7180, 7280, 7279, 7278
2513, 2368, 2369, 2418, 2417, 7182, 7282, 7281, 7280
2514, 2369, 2370, 2419, 2418, 7184, 7284, 7283, 7282
2515, 2370, 2371, 2420, 2419, 7186, 7286, 7285, 7284
2516, 2371, 2372, 2421, 2420, 7188, 7288, 7287, 7286
2517, 2372, 2373, 2422, 2421, 7190, 7290, 7289, 7288
2518, 2373, 2374, 2423, 2422, 7192, 7292, 7291, 7290
2519, 2374, 2375, 2424, 2423, 7194, 7294, 7293, 7292
2520, 2375, 2376, 2425, 2424, 7196, 7296, 7295, 7294
2521, 2376, 2377, 2426, 2425, 7198, 7298, 7297, 7296
2522, 2377, 2378, 2427, 2426, 7200, 7300, 7299, 7298
2523, 2378, 2379, 2428, 2427, 7202, 7302, 7301, 7300
2524, 2379, 2380, 2429, 2428, 7204, 7304, 7303, 7302
2525, 2380, 2381, 2430, 2429, 7206, 7306, 7305, 7304
2526, 2381, 2382, 2431, 2430, 7208, 7308, 7307, 7306
2527, 2382, 2383, 2432, 2431, 7210, 7310, 7309, 7308
2528, 2383, 2384, 2433, 2432, 7212, 7312, 7311, 7310
2529, 2384, 2385, 2434, 2433, 7214, 7314, 7313, 7312
2530, 2385, 2386, 2435, 2434, 7216, 7316, 7315, 7314
2531, 2386, 2387, 2436, 2435, 7218, 7318, 7317, 7316
2532, 2387, 2388, 2437, 2436, 7220, 7320, 7319, 7318
2533, 2388, 2389, 2438, 2437, 7222, 7322, 7321, 7320
2534, 2389, 2390, 2439, 2438, 7224, 7324, 7323, 7322
2535, 2390, 2391, 2440, 2439, 7226, 7326, 7325, 7324
2536, 2391, 2392, 2441, 2440, 7228, 7328, 7327, 7326
2537, 2392, 2393, 2442, 2441, 7230, 7330, 7329, 7328
2538, 2393, 2394, 2443, 2442, 7232, 7332, 7331, 7330
2539, 2394, 2395, 2444, 2443, 7234, 7334, 7333, 7332
2540, 2395, 2396, 2445, 2444, 7236, 7336, 7335, 7334
2541, 2396, 2397, 2446, 2445, 7238, 7338, 7337, 7336
2542, 2397, 2398, 2447, 2446, 7240, 7340, 7339, 7338
2543, 2398, 2399, 2448, 2447, 7242, 7342, 7341, 7340
2544, 2399, 2400, 2449, 2448, 7244, 7344, 7343, 7342
2545, 2400, 2401, 2450, 2449, 7246, 7346, 7345, 7344
2546, 2401, 2402, 2451, 2450, 7248, 7348, 7347, 7346
2547, 2402, 2403, 2452, 2451, 7250, 7350, 7349, 7348
2548, 2403, 2404, 2453, 2452, 7252, 7352, 7351, 7350
2549, 2404, 2405, 2454, 2453, 7254, 7354, 7353, 7352
2550, 2405, 210, 209, 2454, 7256, 2811, 7355, 7354
2551, 153, 2406, 2455, 154, 7257, 7357, 7356, 2753
2552, 2406, 2407, 2456, 2455, 7259, 7359, 7358, 7357
2553, 2407, 2408, 2457, 2456, 7261, 7361, 7360, 7359
2554, 2408, 2409, 2458, 2457, 7263, 7363, 7362, 7361
2555, 2409, 2410, 2459, 2458, 7265, 7365, 7364, 7363
2556, 2410, 2411, 2460, 2459, 7267, 7367, 7366, 7365
2557, 2411, 2412, 2461, 2460, 7269, 7369, 7368, 7367
2558, 2412, 2413, 2462, 2461, 7271, 7371, 7370, 7369
2559, 2413, 2414, 2463, 2462, 7273, 7373, 7372, 7371
2560, 2414, 2415, 2464, 2463, 7275, 7375, 7374, 7373
2561, 2415, 2416, 2465, 2464, 7277, 7377, 7376, 7375
2562, 2416, 2417, 2466, 2465, 7279, 7379, 7378, 7377
2563, 2417, 2418, 2467, 2466, 7281, 7381, 7380, 7379
2564, 2418, 2419, 2468, 2467, 7283, 7383, 7382, 7381
2565, 2419, 2420, 2469, 2468, 7285, 7385, 7384, 7383
2566, 2420, 2421, 2470, 2469, 7287, 7387, 7386, 7385
2567, 2421, 2422, 2471, 2470, 7289, 7389, 7388, 7387
2568, 2422, 2423, 2472, 2471, 7291, 7391, 7390, 7389
2569, 2423, 2424, 2473, 2472, 7293, 7393, 7392, 7391
2570, 2424, 2425, 2474, 2473, 7295, 7395, 7394, 7393
2571, 2425, 2426, 2475, 2474, 7297, 7397, 7396, 7395
2572, 2426, 2427, 2476, 2475, 7299, 7399, 7398, 7397
2573, 2427, 2428, 2477, 2476, 7301, 7401, 7400, 7399
2574, 2428, 2429, 2478, 2477, 7303, 7403, 7402, 7401
2575, 2429, 2430, 2479, 2478, 7305, 7405, 7404, 7403
2576, 2430, 2431, 2480, 2479, 7307, 7407, 7406, 7405
2577, 2431, 2432, 2481, 2480, 7309, 7409, 7408, 7407
2578, 2432, 2433, 2482, 2481, 7311, 7411, 7410, 7409
2579, 2433, 2434, 2483, 2482, 7313, 7413, 7412, 7411
2580, 2434, 2435, 2484, 2483, 7315, 7415, 7414, 7413
2581, 2435, 2436, 2485, 2484, 7317, 7417, 7416, 7415
2582, 2436, 2437, 2486, 2485, 7319, 7419, 7418, 7417
2583, 2437, 2438, 2487, 2486, 7321, 7421, 7420, 7419
2584, 2438, 2439, 2488, 2487, 7323, 7423, 7422, 7421
2585, 2439, 2440, 2489, 2488, 7325, 7425, 7424, 7423
2586, 2440, 2441, 2490, 2489, 7327, 7427, 7426, 7425
2587, 2441, 2442, 2491, 2490, 7329, 7429, 7428, 7427
2588, 2442, 2443, 2492, 2491, 7331, 7431, 7430, 7429
2589, 2443, 2444, 2493, 2492, 7333, 7433, 7432, 7431
2590, 2444, 2445, 2494, 2493, 7335, 7435, 7434, 7433
2591, 2445, 2446, 2495, 2494, 7337, 7437, 7436, 7435
2592, 2446, 2447, 2496, 2495, 7339, 7439, 7438, 7437
2593, 2447, 2448, 2497, 2496, 7341, 7441, 7440, 7439
2594, 2448, 2449, 2498, 2497, 7343, 7443, 7442, 7441
2595, 2449, 2450, 2499, 2498, 7345, 7445, 7444, 7443
2596, 2450, 2451, 2500, 2499, 7347, 7447, 7446, 7445
2597, 2451, 2452, 2501, 2500, 7349, 7449, 7448, 7447
2598, 2452, 2453, 2502, 2501, 7351, 7451, 7450, 7449
2599, 2453, 2454, 2503, 2502, 7353, 7453, 7452, 7451
2600, 2454, 209, 208, 2503, 7355, 2810, 7454, 7453
2601, 154, 2455, 2504, 155, 7356, 7456, 7455, 2754
2602, 2455, 2456, 2505, 2504, 7358, 7458, 7457, 7456
2603, 2456, 2457, 2506, 2505, 7360, 7460, 7459, 7458
2604, 2457, 2458, 2507, 2506, 7362, 7462, 7461, 7460
2605, 2458, 2459, 2508, 2507, 7364, 7464, 7463, 7462
2606, 2459, 2460, 2509, 2508, 7366, 7466, 7465, 7464
2607, 2460, 2461, 2510, 2509, 7368, 7468, 7467, 7466
2608, 2461, 2462, 2511, 2510, 7370, 7470, 7469, 7468
2609, 2462, 2463, 2512, 2511, 7372, 7472, 7471, 7470
2610, 2463, 2464, 2513, 2512, 7374, 7474, 7473, 7472
2611, 2464, 2465, 2514, 2513, 7376, 7476, 7475, 7474
2612, 2465, 2466, 2515, 2514, 7378, 7478, 7477, 7476
2613, 2466, 2467, 2516, 2515, 7380, 7480, 7479, 7478
2614, 2467, 2468, 2517, 2516, 7382, 7482, 7481, 7480
2615, 2468, 2469, 2518, 2517, 7384, 7484, 7483, 7482
2616, 2469, 2470, 2519, 2518, 7386, 7486, 7485, 7484
2617, 2470, 2471, 2520, 2519, 7388, 7488, 7487, 7486
2618, 2471, 2472, 2521, 2520, 7390, 7490, 7489, 7488
2619, 2472, 2473, 2522, 2521, 7392, 7492, 7491, 7490
2620, 2473, 2474, 2523, 2522, 7394, 7494, 7493, 7492
2621, 2474, 2475, 2524, 2523, 7396, 7496, 7495, 7494
2622, 2475, 2476, 2525, 2524, 7398, 7498, 7497, 7496
2623, 2476, 2477, 2526, 2525, 7400, 7500, 7499, 7498
2624, 2477, 2478, 2527, 2526, 7402, 7502, 7501, 7500
2625, 2478, 2479, 2528, 2527, 7404, 7504, 7503, 7502
2626, 2479, 2480, 2529, 2528, 7406, 7506, 7505, 7504
2627, 2480, 2481, 2530, 2529, 7408, 7508, 7507, 7506
2628, 2481, 2482, 2531, 2530, 7410, 7510, 7509, 7508
2629, 2482, 2483, 2532, 2531, 7412, 7512, 7511, 7510
2630, 2483, 2484, 2533, 2532, 7414, 7514, 7513, 7512
2631, 2484, 2485, 2534, 2533, 7416, 7516, 7515, 7514
2632, 2485, 2486, 2535, 2534, 7418, 7518, 7517, 7516
2633, 2486, 2487, 2536, 2535, 7420, 7520, 7519, 7518
2634, 2487, 2488, 2537, 2536, 7422, 7522, 7521, 7520
2635, 2488, 2489, 2538, 2537, 7424, 7524, 7523, 7522
2636, 2489, 2490, 2539, 2538, 7426, 7526, 7525, 7524
2637, 2490, 2491, 2540, 2539, 7428, 7528, 7527, 7526
2638, 2491, 2492, 2541, 2540, 7430, 7530, 7529, 7528
2639, 2492, 2493, 2542, 2541, 7432, 7532, 7531, 7530
2640, 2493, 2494, 2543, 2542, 7434, 7534, 7533, 7532
2641, 2494, 2495, 2544, 2543, 7436, 7536, 7535, 7534
2642, 2495, 2496, 2545, 2544, 7438, 7538, 7537, 7536
2643, 2496, 2497, 2546, 2545, 7440, 7540, 7539, 7538
2644, 2497, 2498, 2547, 2546, 7442, 7542, 7541, 7540
2645, 2498, 2499, 2548, 2547, 7444, 7544, 7543, 7542
2646, 2499, 2500, 2549, 2548, 7446, 7546, 7545, 7544
2647, 2500, 2501, 2550, 2549, 7448, 7548, 7547, 7546
2648, 2501, 2502, 2551, 2550, 7450, 7550, 7549, 7548
2649, 2502, 2503, 2552, 2551, 7452, 7552, 7551, 7550
2650, 2503, 208, 207, 2552, 7454, 2809, 7553, 7552
2651, 155, 2504, 2553, 156, 7455, 7555, 7554, 2755
2652, 2504, 2505, 2554, 2553, 7457, 7557, 7556, 7555
2653, 2505, 2506, 2555, 2554, 7459, 7559, 7558, 7557
2654, 2506, 2507, 2556, 2555, 7461, 7561, 7560, 7559
2655, 2507, 2508, 2557, 2556, 7463, 7563, 7562, 7561
2656, 2508, 2509, 2558, 2557, 7465, 7565, 7564, 7563
2657, 2509, 2510, 2559, 2558, 7467, 7567, 7566, 7565
2658, 2510, 2511, 2560, 2559, 7469, 7569, 7568, 7567
2659, 2511, 2512, 2561, 2560, 7471, 7571, 7570, 7569
2660, 2512, 2513, 2562, 2561, 7473, 7573, 7572, 7571
2661, 2513, 2514, 2563, 2562, 7475, 7575, 7574, 7573
2662, 2514, 2515, 2564, 2563, 7477, 7577, 7576, 7575
2663, 2515, 2516, 2565, 2564, 7479, 7579, 7578, 7577
2664, 2516, 2517, 2566, 2565, 7481, 7581, 7580, 7579
2665, 2517, 2518, 2567, 2566, 7483, 7583, 7582, 7581
2666, 2518, 2519, 2568, 2567, 7485, 7585, 7584, 7583
2667, 2519, 2520, 2569, 2568, 7487, 7587, 7586, 7585
2668, 2520, 2521, 2570, 2569, 7489, 7589, 7588, 7587
2669, 2521, 2522, 2571, 2570, 7491, 7591, 7590, 7589
2670, 2522, 2523, 2572, 2571, 7493, 7593, 7592, 7591
2671, 2523, 2524, 2573, 2572, 7495, 7595, 7594, 7593
2672, 2524, 2525, 2574, 2573, 7497, 7597, 7596, 7595
2673, 2525, 2526, 2575, 2574, 7499, 7599, 7598, 7597
2674, 2526, 2527, 2576, 2575, 7501, 7601, 7600, 7599
2675, 2527, 2528, 2577, 2576, 7503, 7603, 7602, 7601
2676, 2528, 2529, 2578, 2577, 7505, 7605, 7604, 7603
2677, 2529, 2530, 2579, 2578, 7507, 7607, 7606, 7605
2678, 2530, 2531, 2580, 2579, 7509, 7609, 7608, 7607
2679, 2531, 2532, 2581, 2580, 7511, 7611, 7610, 7609
2680, 2532, 2533, 2582, 2581, 7513, 7613, 7612, 7611
2681, 2533, 2534, 2583, 2582, 7515, 7615, 7614, 7613
2682, 2534, 2535, 2584, 2583, 7517, 7617, 7616, 7615
2683, 2535, 2536, 2585, 2584, 7519, 7619, 7618, 7617
2684, 2536, 2537, 2586, 2585, 7521, 7621, 7620, 7619
2685, 2537, 2538, 2587, 2586, 7523, 7623, 7622, 7621
2686, 2538, 2539, 2588, 2587, 7525, 7625, 7624, 7623
2687, 2539, 2540, 2589, 2588, 7527, 7627, 7626, 7625
2688, 2540, 2541, 2590, 2589, 7529, 7629, 7628, 7627
2689, 2541, 2542, 2591, 2590, 7531, 7631, 7630, 7629
2690, 2542, 2543, 2592, 2591, 7533, 7633, 7632, 7631
2691, 2543, 2544, 2593, 2592, 7535, 7635, 7634, 7633
2692, 2544, 2545, 2594, 2593, 7537, 7637, 7636, 7635
2693, 2545, 2546, 2595, 2594, 7539, 7639, 7638, 7637
2694, 2546, 2547, 2596, 2595, 7541, 7641, 7640, 7639
2695, 2547, 2548, 2597, 2596, 7543, 7643, 7642, 7641
2696, 2548, 2549, 2598, 2597, 7545, 7645, 7644, 7643
2697, 2549, 2550, 2599, 2598, 7547, 7647, 7646, 7645
2698, 2550, 2551, 2600, 2599, 7549, 7649, 7648, 7647
2699, 2551, 2552, 2601, 2600, 7551, 7651, 7650, 7649
2700, 2552, 207, 206, 2601, 7553, 2808, 7652, 7651
2701, 156, 2553, 59, 1, 7554, 7653, 2656, 2756
2702, 2553, 2554, 58, 59, 7556, 7654, 2655, 7653
2703, 2554, 2555, 57, 58, 7558, 7655, 2654, 7654
2704, 2555, 2556, 56, 57, 7560, 7656, 2653, 7655
2705, 2556, 2557, 55, 56, 7562, 7657, 2652, 7656
2706, 2557, 2558, 54, 55, 7564, 7658, 2651, 7657
2707, 2558, 2559, 53, 54, 7566, 7659, 2650, 7658
2708, 2559, 2560, 52, 53, 7568, 7660, 2649, 7659
2709, 2560, 2561, 51, 52, 7570, 7661, 2648, 7660
2710, 2561, 2562, 50, 51, 7572, 7662, 2647, 7661
2711, 2562, 2563, 49, 50, 7574, 7663, 2646, 7662
2712, 2563, 2564, 48, 49, 7576, 7664, 2645, 7663
2713, 2564, 2565, 47, 48, 7578, 7665, 2644, 7664
2714, 2565, 2566, 46, 47, 7580, 7666, 2643, 7665
2715, 2566, 2567, 45, 46, 7582, 7667, 2642, 7666
2716, 2567, 2568, 44, 45, 7584, 7668, 2641, 7667
2717, 2568, 2569, 43, 44, 7586, 7669, 2640, 7668
2718, 2569, 2570, 42, 43, 7588, 7670, 2639, 7669
2719, 2570, 2571, 41, 42, 7590, 7671, 2638, 7670
2720, 2571, 2572, 40, 41, 7592, 7672, 2637, 7671
2721, 2572, 2573, 39, 40, 7594, 7673, 2636, 7672
2722, 2573, 2574, 38, 39, 7596, 7674, 2635, 7673
2723, 2574, 2575, 37, 38, 7598, 7675, 2634, 7674
2724, 2575, 2576, 36, 37, 7600, 7676, 2633, 7675
2725, 2576, 2577, 35, 36, 7602, 7677, 2632, 7676
2726, 2577, 2578, 34, 35, 7604, 7678, 2631, 7677
2727, 2578, 2579, 33, 34, 7606, 7679, 2630, 7678
2728, 2579, 2580, 32, 33, 7608, 7680, 2629, 7679
2729, 2580, 2581, 31, 32, 7610, 7681, 2628, 7680
2730, 2581, 2582, 30, 31, 7612, 7682, 2627, 7681
2731, 2582, 2583, 29, 30, 7614, 7683, 2626, 7682
2732, 2583, 2584, 28, 29, 7616, 7684, 2625, 7683
2733, 2584, 2585, 27, 28, 7618, 7685, 2624, 7684
2734, 2585, 2586, 26, 27, 7620, 7686, 2623, 7685
2735, 2586, 2587, 25, 26, 7622, 7687, 2622, 7686
2736, 2587, 2588, 24, 25, 7624, 7688, 2621, 7687
2737, 2588, 2589, 23, 24, 7626, 7689, 2620, 7688
2738, 2589, 2590, 22, 23, 7628, 7690, 2619, 7689
2739, 2590, 2591, 21, 22, 7630, 7691, 2618, 7690
2740, 2591, 2592, 20, 21, 7632, 7692, 2617, 7691
2741, 2592, 2593, 19, 20, 7634, 7693, 2616, 7692
2742, 2593, 2594, 18, 19, 7636, 7694, 2615, 7693
2743, 2594, 2595, 17, 18, 7638, 7695, 2614, 7694
2744, 2595, 2596, 16, 17, 7640, 7696, 2613, 7695
2745, 2596, 2597, 15, 16, 7642, 7697, 2612, 7696
2746, 2597, 2598, 14, 15, 7644, 7698, 2611, 7697
2747, 2598, 2599, 13, 14, 7646, 7699, 2610, 7698
2748, 2599, 2600, 12, 13, 7648, 7700, 2609, 7699
2749, 2600, 2601, 11, 12, 7650, 7701, 2608, 7700
2750, 2601, 206, 3, 11, 7652, 2807, 2607, 7701
*Nset, Nset=bottom
1, 2, 5, 7, 8, 9, 10, 2602, 2603, 2604, 2605, 2606, 113, 114, 115, 116
117, 118, 119, 120, 121, 122, 123, 124, 125, 126, 127, 128, 129, 130, 131, 132
133, 134, 135, 136, 137, 138, 139, 140, 141, 142, 143, 144, 145, 146, 147, 148
149, 150, 151, 152, 153, 154, 155, 156, 2712, 2713, 2714, 2715, 2716, 2717, 2718, 2719
2720, 2721, 2722, 2723, 2724, 2725, 2726, 2727, 2728, 2729, 2730, 2731, 2732, 2733, 2734, 2735
2736, 2737, 2738, 2739, 2740, 2741, 2742, 2743, 2744, 2745, 2746, 2747, 2748, 2749, 2750, 2751
2752, 2753, 2754, 2755, 2756
*Nset, Nset=left
2, 4, 64, 65, 66, 67, 68, 69, 70, 71, 72, 73, 74, 75, 76, 77
78, 79, 80, 81, 82, 83, 84, 85, 86, 87, 88, 89, 90, 91, 92, 93
94, 95, 96, 97, 98, 99, 100, 101, 102, 103, 104, 105, 106, 107, 108, 109
110, 111, 112, 2662, 2663, 2664, 2665, 2666, 2667, 2668, 2669, 2670, 2671, 2672, 2673, 2674
2675, 2676, 2677, 2678, 2679, 2680, 2681, 2682, 2683, 2684, 2685, 2686, 2687, 2688, 2689, 2690
2691, 2692, 2693, 2694, 2695, 2696, 2697, 2698, 2699, 2700, 2701, 2702, 2703, 2704, 2705, 2706
2707, 2708, 2709, 2710, 2711
*Nset, Nset=right
5, 6, 157, 158, 159, 160, 161, 162, 163, 164, 165, 166, 167, 168, 169, 170
171, 172, 173, 174, 175, 176, 177, 178, 179, 180, 181, 182, 183, 184, 185, 186
187, 188, 189, 190, 191, 192, 193, 194, 195, 196, 197, 198, 199, 200, 201, 202
203, 204, 205, 2757, 2758, 2759, 2760, 2761, 2762, 2763, 2764, 2765, 2766, 2767, 2768, 2769
2770, 2771, 2772, 2773, 2774, 2775, 2776, 2777, 2778, 2779, 2780, 2781, 2782, 2783, 2784, 2785
2786, 2787, 2788, 2789, 2790, 2791, 2792, 2793, 2794, 2795, 2796, 2797, 2798, 2799, 2800, 2801
2802, 2803, 2804, 2805, 2806
*Nset, Nset=top
3, 4, 6, 60, 61, 62, 63, 2657, 2658, 2659, 2660, 2661, 206, 207, 208, 209
210, 211, 212, 213, 214, 215, 216, 217, 218, 219, 220, 221, 222, 223, 224, 225
226, 227, 228, 229, 230, 231, 232, 233, 234, 235, 236, 237, 238, 239, 240, 241
242, 243, 244, 245, 246, 247, 248, 249, 2807, 2808, 2809, 2810, 2811, 2812, 2813, 2814
2815, 2816, 2817, 2818, 2819, 2820, 2821, 2822, 2823, 2824, 2825, 2826, 2827, 2828, 2829, 2830
2831, 2832, 2833, 2834, 2835, 2836, 2837, 2838, 2839, 2840, 2841, 2842, 2843, 2844, 2845, 2846
2847, 2848, 2849, 2850, 2851
*Nset, Nset=all
1, 2, 3, 4, 5, 6, 7, 8, 9, 10, 2602, 2603, 2604, 2605, 2606, 60
61, 62, 63, 2657, 2658, 2659, 2660, 2661, 11, 12, 13, 14, 15, 16, 17, 18
19, 20, 21, 22, 23, 24, 25, 26, 27, 28, 29, 30, 31, 32, 33, 34
35, 36, 37, 38, 39, 40, 41, 42, 43, 44, 45, 46, 47, 48, 49, 50
51, 52, 53, 54, 55, 56, 57, 58, 59, 2607, 2608, 2609, 2610, 2611, 2612, 2613
2614, 2615, 2616, 2617, 2618, 2619, 2620, 2621, 2622, 2623, 2624, 2625, 2626, 2627, 2628, 2629
2630, 2631, 2632, 2633, 2634, 2635, 2636, 2637, 2638, 2639, 2640, 2641, 2642, 2643, 2644, 2645
2646, 2647, 2648, 2649, 2650, 2651, 2652, 2653, 2654, 2655, 2656, 64, 65, 66, 67, 68
69, 70, 71, 72, 73, 74, 75, 76, 77, 78, 79, 80, 81, 82, 83, 84
85, 86, 87, 88, 89, 90, 91, 92, 93, 94, 95, 96, 97, 98, 99, 100
101, 102, 103, 104, 105, 106, 107, 108, 109, 110, 111, 112, 2662, 2663, 2664, 2665
2666, 2667, 2668, 2669, 2670, 2671, 2672, 2673, 2674, 2675, 2676, 2677, 2678, 2679, 2680, 2681
2682, 2683, 2684, 2685, 2686, 2687, 2688, 2689, 2690, 2691, 2692, 2693, 2694, 2695, 2696, 2697
2698, 2699, 2700, 2701, 2702, 2703, 2704, 2705, 2706, 2707, 2708, 2709, 2710, 2711, 206, 207
208, 209, 210, 211, 212, 213, 214, 215, 216, 217, 218, 219, 220, 221, 222, 223
224, 225, 226, 227, 228, 229, 230, 231, 232, 233, 234, 235, 236, 237, 238, 239
240, 241, 242, 243, 244, 245, 246, 247, 248, 249, 2807, 2808, 2809, 2810, 2811, 2812
2813, 2814, 2815, 2816, 2817, 2818, 2819, 2820, 2821, 2822, 2823, 2824, 2825, 2826, 2827, 2828
2829, 2830, 2831, 2832, 2833, 2834, 2835, 2836, 2837, 2838, 2839, 2840, 2841, 2842, 2843, 2844
2845, 2846, 2847, 2848, 2849, 2850, 2851, 113, 114, 115, 116, 117, 118, 119, 120, 121
122, 123, 124, 125, 126, 127, 128, 129, 130, 131, 132, 133, 134, 135, 136, 137
138, 139, 140, 141, 142, 143, 144, 145, 146, 147, 148, 149, 150, 151, 152, 153
154, 155, 156, 2712, 2713, 2714, 2715, 2716, 2717, 2718, 2719, 2720, 2721, 2722, 2723, 2724
2725, 2726, 2727, 2728, 2729, 2730, 2731, 2732, 2733, 2734, 2735, 2736, 2737, 2738, 2739, 2740
2741, 2742, 2743, 2744, 2745, 2746, 2747, 2748, 2749, 2750, 2751, 2752, 2753, 2754, 2755, 2756
157, 158, 159, 160, 161, 162, 163, 164, 165, 166, 167, 168, 169, 170, 171, 172
173, 174, 175, 176, 177, 178, 179, 180, 181, 182, 183, 184, 185, 186, 187, 188
189, 190, 191, 192, 193, 194, 195, 196, 197, 198, 199, 200, 201, 202, 203, 204
205, 2757, 2758, 2759, 2760, 2761, 2762, 2763, 2764, 2765, 2766, 2767, 2768, 2769, 2770, 2771
2772, 2773, 2774, 2775, 2776, 2777, 2778, 2779, 2780, 2781, 2782, 2783, 2784, 2785, 2786, 2787
2788, 2789, 2790, 2791, 2792, 2793, 2794, 2795, 2796, 2797, 2798, 2799, 2800, 2801, 2802, 2803
2804, 2805, 2806, 446, 447, 448, 449, 450, 451, 452, 453, 454, 455, 456, 457, 458
459, 460, 461, 462, 463, 464, 465, 466, 467, 468, 469, 470, 471, 472, 473, 474
475, 476, 477, 478, 479, 480, 481, 482, 483, 484, 485, 486, 487, 488, 489, 490
491, 492, 493, 494, 495, 496, 497, 498, 499, 500, 501, 502, 503, 504, 505, 506
507, 508, 509, 510, 511, 512, 513, 514, 515, 516, 517, 518, 519, 520, 521, 522
523, 524, 525, 526, 527, 528, 529, 530, 531, 532, 533, 534, 535, 536, 537, 538
539, 540, 541, 542, 543, 544, 545, 546, 547, 548, 549, 550, 551, 552, 553, 554
555, 556, 557, 558, 559, 560, 561, 562, 563, 564, 565, 566, 567, 568, 569, 570
571, 572, 573, 574, 575, 576, 577, 578, 579, 580, 581, 582, 583, 584, 585, 586
587, 588, 589, 590, 591, 592, 593, 594, 595, 596, 597, 598, 599, 600, 601, 602
603, 604, 605, 606, 607, 608, 609, 610, 611, 612, 613, 614, 615, 616, 617, 618
619, 620, 621, 622, 623, 624, 625, 626, 627, 628, 629, 630, 631, 632, 633, 634
635, 636, 637, 638, 639, 640, 641, 642, 643, 644, 645, 646, 647, 648, 649, 650
651, 652, 653, 654, 655, 656, 657, 658, 659, 660, 661, 662, 663, 664, 665, 666
667, 668, 669, 670, 671, 672, 673, 674, 675, 676, 677, 678, 679, 680, 681, 682
683, 684, 685, 686, 687, 688, 689, 690, 691, 692, 693, 694, 695, 696, 697, 698
699, 700, 701, 702, 703, 704, 705, 706, 707, 708, 709, 710, 711, 712, 713, 714
715, 716, 717, 718, 719, 720, 721, 722, 723, 724, 725, 726, 727, 728, 729, 730
731, 732, 733, 734, 735, 736, 737, 738, 739, 740, 741, 742, 743, 744, 745, 746
747, 748, 749, 750, 751, 752, 753, 754, 755, 756, 757, 758, 759, 760, 761, 762
763, 764, 765, 766, 767, 768, 769, 770, 771, 772, 773, 774, 775, 776, 777, 778
779, 780, 781, 782, 783, 784, 785, 786, 787, 788, 789, 790, 791, 792, 793, 794
795, 796, 797, 798, 799, 800, 801, 802, 803, 804, 805, 806, 807, 808, 809, 810
811, 812, 813, 814, 815, 816, 817, 818, 819, 820, 821, 822, 823, 824, 825, 826
827, 828, 829, 830, 831, 832, 833, 834, 835, 836, 837, 838, 839, 840, 841, 842
843, 844, 845, 846, 847, 848, 849, 850, 851, 852, 853, 854, 855, 856, 857, 858
859, 860, 861, 862, 863, 864, 865, 866, 867, 868, 869, 870, 871, 872, 873, 874
875, 876, 877, 878, 879, 880, 881, 882, 883, 884, 885, 886, 887, 888, 889, 890
891, 892, 893, 894, 895, 896, 897, 898, 899, 900, 901, 902, 903, 904, 905, 906
907, 908, 909, 910, 911, 912, 913, 914, 915, 916, 917, 918, 919, 920, 921, 922
923, 924, 925, 926, 927, 928, 929, 930, 931, 932, 933, 934, 935, 936, 937, 938
939, 940, 941, 942, 943, 944, 945, 946, 947, 948, 949, 950, 951, 952, 953, 954
955, 956, 957, 958, 959, 960, 961, 962, 963, 964, 965, 966, 967, 968, 969, 970
971, 972, 973, 974, 975, 976, 977, 978, 979, 980, 981, 982, 983, 984, 985, 986
987, 988, 989, 990, 991, 992, 993, 994, 995, 996, 997, 998, 999, 1000, 1001, 1002
1003, 1004, 1005, 1006, 1007, 1008, 1009, 1010, 1011, 1012, 1013, 1014, 1015, 1016, 1017, 1018
1019, 1020, 1021, 1022, 1023, 1024, 1025, 1026, 1027, 1028, 1029, 1030, 1031, 1032, 1033, 1034
1035, 1036, 1037, 1038, 1039, 1040, 1041, 1042, 1043, 1044, 1045, 1046, 1047, 1048, 1049, 1050
1051, 1052, 1053, 1054, 1055, 1056, 1057, 1058, 1059, 1060, 1061, 1062, 1063, 1064, 1065, 1066
1067, 1068, 1069, 1070, 1071, 1072, 1073, 1074, 1075, 1076, 1077, 1078, 1079, 1080, 1081, 1082
1083, 1084, 1085, 1086, 1087, 1088, 1089, 1090, 1091, 1092, 1093, 1094, 1095, 1096, 1097, 1098
1099, 1100, 1101, 1102, 1103, 1104, 1105, 1106, 1107, 1108, 1109, 1110, 1111, 1112, 1113, 1114
1115, 1116, 1117, 1118, 1119, 1120, 1121, 1122, 1123, 1124, 1125, 1126, 1127, 1128, 1129, 1130
1131, 1132, 1133, 1134, 1135, 1136, 1137, 1138, 1139, 1140, 1141, 1142, 1143, 1144, 1145, 1146
1147, 1148, 1149, 1150, 1151, 1152, 1153, 1154, 1155, 1156, 1157, 1158, 1159, 1160, 1161, 1162
1163, 1164, 1165, 1166, 1167, 1168, 1169, 1170, 1171, 1172, 1173, 1174, 1175, 1176, 1177, 1178
1179, 1180, 1181, 1182, 1183, 1184, 1185, 1186, 1187, 1188, 1189, 1190, 1191, 1192, 1193, 1194
1195, 1196, 1197, 1198, 1199, 1200, 1201, 1202, 1203, 1204, 1205, 1206, 1207, 1208, 1209, 1210
1211, 1212, 1213, 1214, 1215, 1216, 1217, 1218, 1219, 1220, 1221, 1222, 1223, 1224, 1225, 1226
1227, 1228, 1229, 1230, 1231, 1232, 1233, 1234, 1235, 1236, 1237, 1238, 1239, 1240, 1241, 1242
1243, 1244, 1245, 1246, 1247, 1248, 1249, 1250, 1251, 1252, 1253, 1254, 1255, 1256, 1257, 1258
1259, 1260, 1261, 1262, 1263, 1264, 1265, 1266, 1267, 1268, 1269, 1270, 1271, 1272, 1273, 1274
1275, 1276, 1277, 1278, 1279, 1280, 1281, 1282, 1283, 1284, 1285, 1286, 1287, 1288, 1289, 1290
1291, 1292, 1293, 1294, 1295, 1296, 1297, 1298, 1299, 1300, 1301, 1302, 1303, 1304, 1305, 1306
1307, 1308, 1309, 1310, 1311, 1312, 1313, 1314, 1315, 1316, 1317, 1318, 1319, 1320, 1321, 1322
1323, 1324, 1325, 1326, 1327, 1328, 1329, 1330, 1331, 1332, 1333, 1334, 1335, 1336, 1337, 1338
1339, 1340, 1341, 1342, 1343, 1344, 1345, 1346, 1347, 1348, 1349, 1350, 1351, 1352, 1353, 1354
1355, 1356, 1357, 1358, 1359, 1360, 1361, 1362, 1363, 1364, 1365, 1366, 1367, 1368, 1369, 1370
1371, 1372, 1373, 1374, 1375, 1376, 1377, 1378, 1379, 1380, 1381, 1382, 1383, 1384, 1385, 1386
1387, 1388, 1389, 1390, 1391, 1392, 1393, 1394, 1395, 1396, 1397, 1398, 1399, 1400, 1401, 1402
1403, 1404, 1405, 1406, 1407, 1408, 1409, 1410, 1411, 1412, 1413, 1414, 1415, 1416, 1417, 1418
1419, 1420, 1421, 1422, 1423, 1424, 1425, 1426, 1427, 1428, 1429, 1430, 1431, 1432, 1433, 1434
1435, 1436, 1437, 1438, 1439, 1440, 1441, 1442, 1443, 1444, 1445, 1446, 1447, 1448, 1449, 1450
1451, 1452, 1453, 1454, 1455, 1456, 1457, 1458, 1459, 1460, 1461, 1462, 1463, 1464, 1465, 1466
1467, 1468, 1469, 1470, 1471, 1472, 1473, 1474, 1475, 1476, 1477, 1478, 1479, 1480, 1481, 1482
1483, 1484, 1485, 1486, 1487, 1488, 1489, 1490, 1491, 1492, 1493, 1494, 1495, 1496, 1497, 1498
1499, 1500, 1501, 1502, 1503, 1504, 1505, 1506, 1507, 1508, 1509, 1510, 1511, 1512, 1513, 1514
1515, 1516, 1517, 1518, 1519, 1520, 1521, 1522, 1523, 1524, 1525, 1526, 1527, 1528, 1529, 1530
1531, 1532, 1533, 1534, 1535, 1536, 1537, 1538, 1539, 1540, 1541, 1542, 1543, 1544, 1545, 1546
1547, 1548, 1549, 1550, 1551, 1552, 1553, 1554, 1555, 1556, 1557, 1558, 1559, 1560, 1561, 1562
1563, 1564, 1565, 1566, 1567, 1568, 1569, 1570, 1571, 1572, 1573, 1574, 1575, 1576, 1577, 1578
1579, 1580, 1581, 1582, 1583, 1584, 1585, 1586, 1587, 1588, 1589, 1590, 1591, 1592, 1593, 1594
1595, 1596, 1597, 1598, 1599, 1600, 1601, 1602, 1603, 1604, 1605, 1606, 1607, 1608, 1609, 1610
1611, 1612, 1613, 1614, 1615, 1616, 1617, 1618, 1619, 1620, 1621, 1622, 1623, 1624, 1625, 1626
1627, 1628, 1629, 1630, 1631, 1632, 1633, 1634, 1635, 1636, 1637, 1638, 1639, 1640, 1641, 1642
1643, 1644, 1645, 1646, 1647, 1648, 1649, 1650, 1651, 1652, 1653, 1654, 1655, 1656, 1657, 1658
1659, 1660, 1661, 1662, 1663, 1664, 1665, 1666, 1667, 1668, 1669, 1670, 1671, 1672, 1673, 1674
1675, 1676, 1677, 1678, 1679, 1680, 1681, 1682, 1683, 1684, 1685, 1686, 1687, 1688, 1689, 1690
1691, 1692, 1693, 1694, 1695, 1696, 1697, 1698, 1699, 1700, 1701, 1702, 1703, 1704, 1705, 1706
1707, 1708, 1709, 1710, 1711, 1712, 1713, 1714, 1715, 1716, 1717, 1718, 1719, 1720, 1721, 1722
1723, 1724, 1725, 1726, 1727, 1728, 1729, 1730, 1731, 1732, 1733, 1734, 1735, 1736, 1737, 1738
1739, 1740, 1741, 1742, 1743, 1744, 1745, 1746, 1747, 1748, 1749, 1750, 1751, 1752, 1753, 1754
1755, 1756, 1757, 1758, 1759, 1760, 1761, 1762, 1763, 1764, 1765, 1766, 1767, 1768, 1769, 1770
1771, 1772, 1773, 1774, 1775, 1776, 1777, 1778, 1779, 1780, 1781, 1782, 1783, 1784, 1785, 1786
1787, 1788, 1789, 1790, 1791, 1792, 1793, 1794, 1795, 1796, 1797, 1798, 1799, 1800, 1801, 1802
1803, 1804, 1805, 1806, 1807, 1808, 1809, 1810, 1811, 1812, 1813, 1814, 1815, 1816, 1817, 1818
1819, 1820, 1821, 1822, 1823, 1824, 1825, 1826, 1827, 1828, 1829, 1830, 1831, 1832, 1833, 1834
1835, 1836, 1837, 1838, 1839, 1840, 1841, 1842, 1843, 1844, 1845, 1846, 1847, 1848, 1849, 1850
1851, 1852, 1853, 1854, 1855, 1856, 1857, 1858, 1859, 1860, 1861, 1862, 1863, 1864, 1865, 1866
1867, 1868, 1869, 1870, 1871, 1872, 1873, 1874, 1875, 1876, 1877, 1878, 1879, 1880, 1881, 1882
1883, 1884, 1885, 1886, 1887, 1888, 1889, 1890, 1891, 1892, 1893, 1894, 1895, 1896, 1897, 1898
1899, 1900, 1901, 1902, 1903, 1904, 1905, 1906, 1907, 1908, 1909, 1910, 1911, 1912, 1913, 1914
1915, 1916, 1917, 1918, 1919, 1920, 1921, 1922, 1923, 1924, 1925, 1926, 1927, 1928, 1929, 1930
1931, 1932, 1933, 1934, 1935, 1936, 1937, 1938, 1939, 1940, 1941, 1942, 1943, 1944, 1945, 1946
1947, 1948, 1949, 1950, 1951, 1952, 1953, 1954, 1955, 1956, 1957, 1958, 1959, 1960, 1961, 1962
1963, 1964, 1965, 1966, 1967, 1968, 1969, 1970, 1971, 1972, 1973, 1974, 1975, 1976, 1977, 1978
1979, 1980, 1981, 1982, 1983, 1984, 1985, 1986, 1987, 1988, 1989, 1990, 1991, 1992, 1993, 1994
1995, 1996, 1997, 1998, 1999, 2000, 2001, 2002, 2003, 2004, 2005, 2006, 2007, 2008, 2009, 2010
2011, 2012, 2013, 2014, 2015, 2016, 2017, 2018, 2019, 2020, 2021, 2022, 2023, 2024, 2025, 2026
2027, 2028, 2029, 2030, 2031, 2032, 2033, 2034, 2035, 2036, 2037, 2038, 2039, 2040, 2041, 2042
2043, 2044, 2045, 2046, 2047, 2048, 2049, 2050, 2051, 2052, 2053, 2054, 2055, 2056, 2057, 2058
2059, 2060, 2061, 2062, 2063, 2064, 2065, 2066, 2067, 2068, 2069, 2070, 2071, 2072, 2073, 2074
2075, 2076, 2077, 2078, 2079, 2080, 2081, 2082, 2083, 2084, 2085, 2086, 2087, 2088, 2089, 2090
2091, 2092, 2093, 2094, 2095, 2096, 2097, 2098, 2099, 2100, 2101, 2102, 2103, 2104, 2105, 2106
2107, 2108, 2109, 2110, 2111, 2112, 2113, 2114, 2115, 2116, 2117, 2118, 2119, 2120, 2121, 2122
2123, 2124, 2125, 2126, 2127, 2128, 2129, 2130, 2131, 2132, 2133, 2134, 2135, 2136, 2137, 2138
2139, 2140, 2141, 2142, 2143, 2144, 2145, 2146, 2147, 2148, 2149, 2150, 2151, 2152, 2153, 2154
2155, 2156, 2157, 2158, 2159, 2160, 2161, 2162, 2163, 2164, 2165, 2166, 2167, 2168, 2169, 2170
2171, 2172, 2173, 2174, 2175, 2176, 2177, 2178, 2179, 2180, 2181, 2182, 2183, 2184, 2185, 2186
2187, 2188, 2189, 2190, 2191, 2192, 2193, 2194, 2195, 2196, 2197, 2198, 2199, 2200, 2201, 2202
2203, 2204, 2205, 2206, 2207, 2208, 2209, 2210, 2211, 2212, 2213, 2214, 2215, 2216, 2217, 2218
2219, 2220, 2221, 2222, 2223, 2224, 2225, 2226, 2227, 2228, 2229, 2230, 2231, 2232, 2233, 2234
2235, 2236, 2237, 2238, 2239, 2240, 2241, 2242, 2243, 2244, 2245, 2246, 2247, 2248, 2249, 2250
2251, 2252, 2253, 2254, 2255, 2256, 2257, 2258, 2259, 2260, 2261, 2262, 2263, 2264, 2265, 2266
2267, 2268, 2269, 2270, 2271, 2272, 2273, 2274, 2275, 2276, 2277, 2278, 2279, 2280, 2281, 2282
2283, 2284, 2285, 2286, 2287, 2288, 2289, 2290, 2291, 2292, 2293, 2294, 2295, 2296, 2297, 2298
2299, 2300, 2301, 2302, 2303, 2304, 2305, 2306, 2307, 2308, 2309, 2310, 2311, 2312, 2313, 2314
2315, 2316, 2317, 2318, 2319, 2320, 2321, 2322, 2323, 2324, 2325, 2326, 2327, 2328, 2329, 2330
2331, 2332, 2333, 2334, 2335, 2336, 2337, 2338, 2339, 2340, 2341, 2342, 2343, 2344, 2345, 2346
2347, 2348, 2349, 2350, 2351, 2352, 2353, 2354, 2355, 2356, 2357, 2358, 2359, 2360, 2361, 2362
2363, 2364, 2365, 2366, 2367, 2368, 2369, 2370, 2371, 2372, 2373, 2374, 2375, 2376, 2377, 2378
2379, 2380, 2381, 2382, 2383, 2384, 2385, 2386, 2387, 2388, 2389, 2390, 2391, 2392, 2393, 2394
2395, 2396, 2397, 2398, 2399, 2400, 2401, 2402, 2403, 2404, 2405, 2406, 2407, 2408, 2409, 2410
2411, 2412, 2413, 2414, 2415, 2416, 2417, 2418, 2419, 2420, 2421, 2422, 2423, 2424, 2425, 2426
2427, 2428, 2429, 2430, 2431, 2432, 2433, 2434, 2435, 2436, 2437, 2438, 2439, 2440, 2441, 2442
2443, 2444, 2445, 2446, 2447, 2448, 2449, 2450, 2451, 2452, 2453, 2454, 2455, 2456, 2457, 2458
2459, 2460, 2461, 2462, 2463, 2464, 2465, 2466, 2467, 2468, 2469, 2470, 2471, 2472, 2473, 2474
2475, 2476, 2477, 2478, 2479, 2480, 2481, 2482, 2483, 2484, 2485, 2486, 2487, 2488, 2489, 2490
2491, 2492, 2493, 2494, 2495, 2496, 2497, 2498, 2499, 2500, 2501, 2502, 2503, 2504, 2505, 2506
2507, 2508, 2509, 2510, 2511, 2512, 2513, 2514, 2515, 2516, 2517, 2518, 2519, 2520, 2521, 2522
2523, 2524, 2525, 2526, 2527, 2528, 2529, 2530, 2531, 2532, 2533, 2534, 2535, 2536, 2537, 2538
2539, 2540, 2541, 2542, 2543, 2544, 2545, 2546, 2547, 2548, 2549, 2550, 2551, 2552, 2553, 2554
2555, 2556, 2557, 2558, 2559, 2560, 2561, 2562, 2563, 2564, 2565, 2566, 2567, 2568, 2569, 2570
2571, 2572, 2573, 2574, 2575, 2576, 2577, 2578, 2579, 2580, 2581, 2582, 2583, 2584, 2585, 2586
2587, 2588, 2589, 2590, 2591, 2592, 2593, 2594, 2595, 2596, 2597, 2598, 2599, 2600, 2601, 3297
3298, 3299, 3300, 3301, 3302, 3303, 3304, 3305, 3306, 3307, 3308, 3309, 3310, 3311, 3312, 3313
3314, 3315, 3316, 3317, 3318, 3319, 3320, 3321, 3322, 3323, 3324, 3325, 3326, 3327, 3328, 3329
3330, 3331, 3332, 3333, 3334, 3335, 3336, 3337, 3338, 3339, 3340, 3341, 3342, 3343, 3344, 3345
3346, 3347, 3348, 3349, 3350, 3351, 3352, 3353, 3354, 3355, 3356, 3357, 3358, 3359, 3360, 3361
3362, 3363, 3364, 3365, 3366, 3367, 3368, 3369, 3370, 3371, 3372, 3373, 3374, 3375, 3376, 3377
3378, 3379, 3380, 3381, 3382, 3383, 3384, 3385, 3386, 3387, 3388, 3389, 3390, 3391, 3392, 3393
3394, 3395, 3396, 3397, 3398, 3399, 3400, 3401, 3402, 3403, 3404, 3405, 3406, 3407, 3408, 3409
3410, 3411, 3412, 3413, 3414, 3415, 3416, 3417, 3418, 3419, 3420, 3421, 3422, 3423, 3424, 3425
3426, 3427, 3428, 3429, 3430, 3431, 3432, 3433, 3434, 3435, 3436, 3437, 3438, 3439, 3440, 3441
3442, 3443, 3444, 3445, 3446, 3447, 3448, 3449, 3450, 3451, 3452, 3453, 3454, 3455, 3456, 3457
3458, 3459, 3460, 3461, 3462, 3463, 3464, 3465, 3466, 3467, 3468, 3469, 3470, 3471, 3472, 3473
3474, 3475, 3476, 3477, 3478, 3479, 3480, 3481, 3482, 3483, 3484, 3485, 3486, 3487, 3488, 3489
3490, 3491, 3492, 3493, 3494, 3495, 3496, 3497, 3498, 3499, 3500, 3501, 3502, 3503, 3504, 3505
3506, 3507, 3508, 3509, 3510, 3511, 3512, 3513, 3514, 3515, 3516, 3517, 3518, 3519, 3520, 3521
3522, 3523, 3524, 3525, 3526, 3527, 3528, 3529, 3530, 3531, 3532, 3533, 3534, 3535, 3536, 3537
3538, 3539, 3540, 3541, 3542, 3543, 3544, 3545, 3546, 3547, 3548, 3549, 3550, 3551, 3552, 3553
3554, 3555, 3556, 3557, 3558, 3559, 3560, 3561, 3562, 3563, 3564, 3565, 3566, 3567, 3568, 3569
3570, 3571, 3572, 3573, 3574, 3575, 3576, 3577, 3578, 3579, 3580, 3581, 3582, 3583, 3584, 3585
3586, 3587, 3588, 3589, 3590, 3591, 3592, 3593, 3594, 3595, 3596, 3597, 3598, 3599, 3600, 3601
3602, 3603, 3604, 3605, 3606, 3607, 3608, 3609, 3610, 3611, 3612, 3613, 3614, 3615, 3616, 3617
3618, 3619, 3620, 3621, 3622, 3623, 3624, 3625, 3626, 3627, 3628, 3629, 3630, 3631, 3632, 3633
3634, 3635, 3636, 3637, 3638, 3639, 3640, 3641, 3642, 3643, 3644, 3645, 3646, 3647, 3648, 3649
3650, 3651, 3652, 3653, 3654, 3655, 3656, 3657, 3658, 3659, 3660, 3661, 3662, 3663, 3664, 3665
3666, 3667, 3668, 3669, 3670, 3671, 3672, 3673, 3674, 3675, 3676, 3677, 3678, 3679, 3680, 3681
3682, 3683, 3684, 3685, 3686, 3687, 3688, 3689, 3690, 3691, 3692, 3693, 3694, 3695, 3696, 3697
3698, 3699, 3700, 3701, 3702, 3703, 3704, 3705, 3706, 3707, 3708, 3709, 3710, 3711, 3712, 3713
3714, 3715, 3716, 3717, 3718, 3719, 3720, 3721, 3722, 3723, 3724, 3725, 3726, 3727, 3728, 3729
3730, 3731, 3732, 3733, 3734, 3735, 3736, 3737, 3738, 3739, 3740, 3741, 3742, 3743, 3744, 3745
3746, 3747, 3748, 3749, 3750, 3751, 3752, 3753, 3754, 3755, 3756, 3757, 3758, 3759, 3760, 3761
3762, 3763, 3764, 3765, 3766, 3767, 3768, 3769, 3770, 3771, 3772, 3773, 3774, 3775, 3776, 3777
3778, 3779, 3780, 3781, 3782, 3783, 3784, 3785, 3786, 3787, 3788, 3789, 3790, 3791, 3792, 3793
3794, 3795, 3796, 3797, 3798, 3799, 3800, 3801, 3802, 3803, 3804, 3805, 3806, 3807, 3808, 3809
3810, 3811, 3812, 3813, 3814, 3815, 3816, 3817, 3818, 3819, 3820, 3821, 3822, 3823, 3824, 3825
3826, 3827, 3828, 3829, 3830, 3831, 3832, 3833, 3834, 3835, 3836, 3837, 3838, 3839, 3840, 3841
3842, 3843, 3844, 3845, 3846, 3847, 3848, 3849, 3850, 3851, 3852, 3853, 3854, 3855, 3856, 3857
3858, 3859, 3860, 3861, 3862, 3863, 3864, 3865, 3866, 3867, 3868, 3869, 3870, 3871, 3872, 3873
3874, 3875, 3876, 3877, 3878, 3879, 3880, 3881, 3882, 3883, 3884, 3885, 3886, 3887, 3888, 3889
3890, 3891, 3892, 3893, 3894, 3895, 3896, 3897, 3898, 3899, 3900, 3901, 3902, 3903, 3904, 3905
3906, 3907, 3908, 3909, 3910, 3911, 3912, 3913, 3914, 3915, 3916, 3917, 3918, 3919, 3920, 3921
3922, 3923, 3924, 3925, 3926, 3927, 3928, 3929, 3930, 3931, 3932, 3933, 3934, 3935, 3936, 3937
3938, 3939, 3940, 3941, 3942, 3943, 3944, 3945, 3946, 3947, 3948, 3949, 3950, 3951, 3952, 3953
3954, 3955, 3956, 3957, 3958, 3959, 3960, 3961, 3962, 3963, 3964, 3965, 3966, 3967, 3968, 3969
3970, 3971, 3972, 3973, 3974, 3975, 3976, 3977, 3978, 3979, 3980, 3981, 3982, 3983, 3984, 3985
3986, 3987, 3988, 3989, 3990, 3991, 3992, 3993, 3994, 3995, 3996, 3997, 3998, 3999, 4000, 4001
4002, 4003, 4004, 4005, 4006, 4007, 4008, 4009, 4010, 4011, 4012, 4013, 4014, 4015, 4016, 4017
4018, 4019, 4020, 4021, 4022, 4023, 4024, 4025, 4026, 4027, 4028, 4029, 4030, 4031, 4032, 4033
4034, 4035, 4036, 4037, 4038, 4039, 4040, 4041, 4042, 4043, 4044, 4045, 4046, 4047, 4048, 4049
4050, 4051, 4052, 4053, 4054, 4055, 4056, 4057, 4058, 4059, 4060, 4061, 4062, 4063, 4064, 4065
4066, 4067, 4068, 4069, 4070, 4071, 4072, 4073, 4074, 4075, 4076, 4077, 4078, 4079, 4080, 4081
4082, 4083, 4084, 4085, 4086, 4087, 4088, 4089, 4090, 4091, 4092, 4093, 4094, 4095, 4096, 4097
4098, 4099, 4100, 4101, 4102, 4103, 4104, 4105, 4106, 4107, 4108, 4109, 4110, 4111, 4112, 4113
4114, 4115, 4116, 4117, 4118, 4119, 4120, 4121, 4122, 4123, 4124, 4125, 4126, 4127, 4128, 4129
4130, 4131, 4132, 4133, 4134, 4135, 4136, 4137, 4138, 4139, 4140, 4141, 4142, 4143, 4144, 4145
4146, 4147, 4148, 4149, 4150, 4151, 4152, 4153, 4154, 4155, 4156, 4157, 4158, 4159, 4160, 4161
4162, 4163, 4164, 4165, 4166, 4167, 4168, 4169, 4170, 4171, 4172, 4173, 4174, 4175, 4176, 4177
4178, 4179, 4180, 4181, 4182, 4183, 4184, 4185, 4186, 4187, 4188, 4189, 4190, 4191, 4192, 4193
4194, 4195, 4196, 4197, 4198, 4199, 4200, 4201, 4202, 4203, 4204, 4205, 4206, 4207, 4208, 4209
4210, 4211, 4212, 4213, 4214, 4215, 4216, 4217, 4218, 4219, 4220, 4221, 4222, 4223, 4224, 4225
4226, 4227, 4228, 4229, 4230, 4231, 4232, 4233, 4234, 4235, 4236, 4237, 4238, 4239, 4240, 4241
4242, 4243, 4244, 4245, 4246, 4247, 4248, 4249, 4250, 4251, 4252, 4253, 4254, 4255, 4256, 4257
4258, 4259, 4260, 4261, 4262, 4263, 4264, 4265, 4266, 4267, 4268, 4269, 4270, 4271, 4272, 4273
4274, 4275, 4276, 4277, 4278, 4279, 4280, 4281, 4282, 4283, 4284, 4285, 4286, 4287, 4288, 4289
4290, 4291, 4292, 4293, 4294, 4295, 4296, 4297, 4298, 4299, 4300, 4301, 4302, 4303, 4304, 4305
4306, 4307, 4308, 4309, 4310, 4311, 4312, 4313, 4314, 4315, 4316, 4317, 4318, 4319, 4320, 4321
4322, 4323, 4324, 4325, 4326, 4327, 4328, 4329, 4330, 4331, 4332, 4333, 4334, 4335, 4336, 4337
4338, 4339, 4340, 4341, 4342, 4343, 4344, 4345, 4346, 4347, 4348, 4349, 4350, 4351, 4352, 4353
4354, 4355, 4356, 4357, 4358, 4359, 4360, 4361, 4362, 4363, 4364, 4365, 4366, 4367, 4368, 4369
4370, 4371, 4372, 4373, 4374, 4375, 4376, 4377, 4378, 4379, 4380, 4381, 4382, 4383, 4384, 4385
4386, 4387, 4388, 4389, 4390, 4391, 4392, 4393, 4394, 4395, 4396, 4397, 4398, 4399, 4400, 4401
4402, 4403, 4404, 4405, 4406, 4407, 4408, 4409, 4410, 4411, 4412, 4413, 4414, 4415, 4416, 4417
4418, 4419, 4420, 4421, 4422, 4423, 4424, 4425, 4426, 4427, 4428, 4429, 4430, 4431, 4432, 4433
4434, 4435, 4436, 4437, 4438, 4439, 4440, 4441, 4442, 4443, 4444, 4445, 4446, 4447, 4448, 4449
4450, 4451, 4452, 4453, 4454, 4455, 4456, 4457, 4458, 4459, 4460, 4461, 4462, 4463, 4464, 4465
4466, 4467, 4468, 4469, 4470, 4471, 4472, 4473, 4474, 4475, 4476, 4477, 4478, 4479, 4480, 4481
4482, 4483, 4484, 4485, 4486, 4487, 4488, 4489, 4490, 4491, 4492, 4493, 4494, 4495, 4496, 4497
4498, 4499, 4500, 4501, 4502, 4503, 4504, 4505, 4506, 4507, 4508, 4509, 4510, 4511, 4512, 4513
4514, 4515, 4516, 4517, 4518, 4519, 4520, 4521, 4522, 4523, 4524, 4525, 4526, 4527, 4528, 4529
4530, 4531, 4532, 4533, 4534, 4535, 4536, 4537, 4538, 4539, 4540, 4541, 4542, 4543, 4544, 4545
4546, 4547, 4548, 4549, 4550, 4551, 4552, 4553, 4554, 4555, 4556, 4557, 4558, 4559, 4560, 4561
4562, 4563, 4564, 4565, 4566, 4567, 4568, 4569, 4570, 4571, 4572, 4573, 4574, 4575, 4576, 4577
4578, 4579, 4580, 4581, 4582, 4583, 4584, 4585, 4586, 4587, 4588, 4589, 4590, 4591, 4592, 4593
4594, 4595, 4596, 4597, 4598, 4599, 4600, 4601, 4602, 4603, 4604, 4605, 4606, 4607, 4608, 4609
4610, 4611, 4612, 4613, 4614, 4615, 4616, 4617, 4618, 4619, 4620, 4621, 4622, 4623, 4624, 4625
4626, 4627, 4628, 4629, 4630, 4631, 4632, 4633, 4634, 4635, 4636, 4637, 4638, 4639, 4640, 4641
4642, 4643, 4644, 4645, 4646, 4647, 4648, 4649, 4650, 4651, 4652, 4653, 4654, 4655, 4656, 4657
4658, 4659, 4660, 4661, 4662, 4663, 4664, 4665, 4666, 4667, 4668, 4669, 4670, 4671, 4672, 4673
4674, 4675, 4676, 4677, 4678, 4679, 4680, 4681, 4682, 4683, 4684, 4685, 4686, 4687, 4688, 4689
4690, 4691, 4692, 4693, 4694, 4695, 4696, 4697, 4698, 4699, 4700, 4701, 4702, 4703, 4704, 4705
4706, 4707, 4708, 4709, 4710, 4711, 4712, 4713, 4714, 4715, 4716, 4717, 4718, 4719, 4720, 4721
4722, 4723, 4724, 4725, 4726, 4727, 4728, 4729, 4730, 4731, 4732, 4733, 4734, 4735, 4736, 4737
4738, 4739, 4740, 4741, 4742, 4743, 4744, 4745, 4746, 4747, 4748, 4749, 4750, 4751, 4752, 4753
4754, 4755, 4756, 4757, 4758, 4759, 4760, 4761, 4762, 4763, 4764, 4765, 4766, 4767, 4768, 4769
4770, 4771, 4772, 4773, 4774, 4775, 4776, 4777, 4778, 4779, 4780, 4781, 4782, 4783, 4784, 4785
4786, 4787, 4788, 4789, 4790, 4791, 4792, 4793, 4794, 4795, 4796, 4797, 4798, 4799, 4800, 4801
4802, 4803, 4804, 4805, 4806, 4807, 4808, 4809, 4810, 4811, 4812, 4813, 4814, 4815, 4816, 4817
4818, 4819, 4820, 4821, 4822, 4823, 4824, 4825, 4826, 4827, 4828, 4829, 4830, 4831, 4832, 4833
4834, 4835, 4836, 4837, 4838, 4839, 4840, 4841, 4842, 4843, 4844, 4845, 4846, 4847, 4848, 4849
4850, 4851, 4852, 4853, 4854, 4855, 4856, 4857, 4858, 4859, 4860, 4861, 4862, 4863, 4864, 4865
4866, 4867, 4868, 4869, 4870, 4871, 4872, 4873, 4874, 4875, 4876, 4877, 4878, 4879, 4880, 4881
4882, 4883, 4884, 4885, 4886, 4887, 4888, 4889, 4890, 4891, 4892, 4893, 4894, 4895, 4896, 4897
4898, 4899, 4900, 4901, 4902, 4903, 4904, 4905, 4906, 4907, 4908, 4909, 4910, 4911, 4912, 4913
4914, 4915, 4916, 4917, 4918, 4919, 4920, 4921, 4922, 4923, 4924, 4925, 4926, 4927, 4928, 4929
4930, 4931, 4932, 4933, 4934, 4935, 4936, 4937, 4938, 4939, 4940, 4941, 4942, 4943, 4944, 4945
4946, 4947, 4948, 4949, 4950, 4951, 4952, 4953, 4954, 4955, 4956, 4957, 4958, 4959, 4960, 4961
4962, 4963, 4964, 4965, 4966, 4967, 4968, 4969, 4970, 4971, 4972, 4973, 4974, 4975, 4976, 4977
4978, 4979, 4980, 4981, 4982, 4983, 4984, 4985, 4986, 4987, 4988, 4989, 4990, 4991, 4992, 4993
4994, 4995, 4996, 4997, 4998, 4999, 5000, 5001, 5002, 5003, 5004, 5005, 5006, 5007, 5008, 5009
5010, 5011, 5012, 5013, 5014, 5015, 5016, 5017, 5018, 5019, 5020, 5021, 5022, 5023, 5024, 5025
5026, 5027, 5028, 5029, 5030, 5031, 5032, 5033, 5034, 5035, 5036, 5037, 5038, 5039, 5040, 5041
5042, 5043, 5044, 5045, 5046, 5047, 5048, 5049, 5050, 5051, 5052, 5053, 5054, 5055, 5056, 5057
5058, 5059, 5060, 5061, 5062, 5063, 5064, 5065, 5066, 5067, 5068, 5069, 5070, 5071, 5072, 5073
5074, 5075, 5076, 5077, 5078, 5079, 5080, 5081, 5082, 5083, 5084, 5085, 5086, 5087, 5088, 5089
5090, 5091, 5092, 5093, 5094, 5095, 5096, 5097, 5098, 5099, 5100, 5101, 5102, 5103, 5104, 5105
5106, 5107, 5108, 5109, 5110, 5111, 5112, 5113, 5114, 5115, 5116, 5117, 5118, 5119, 5120, 5121
5122, 5123, 5124, 5125, 5126, 5127, 5128, 5129, 5130, 5131, 5132, 5133, 5134, 5135, 5136, 5137
5138, 5139, 5140, 5141, 5142, 5143, 5144, 5145, 5146, 5147, 5148, 5149, 5150, 5151, 5152, 5153
5154, 5155, 5156, 5157, 5158, 5159, 5160, 5161, 5162, 5163, 5164, 5165, 5166, 5167, 5168, 5169
5170, 5171, 5172, 5173, 5174, 5175, 5176, 5177, 5178, 5179, 5180, 5181, 5182, 5183, 5184, 5185
5186, 5187, 5188, 5189, 5190, 5191, 5192, 5193, 5194, 5195, 5196, 5197, 5198, 5199, 5200, 5201
5202, 5203, 5204, 5205, 5206, 5207, 5208, 5209, 5210, 5211, 5212, 5213, 5214, 5215, 5216, 5217
5218, 5219, 5220, 5221, 5222, 5223, 5224, 5225, 5226, 5227, 5228, 5229, 5230, 5231, 5232, 5233
5234, 5235, 5236, 5237, 5238, 5239, 5240, 5241, 5242, 5243, 5244, 5245, 5246, 5247, 5248, 5249
5250, 5251, 5252, 5253, 5254, 5255, 5256, 5257, 5258, 5259, 5260, 5261, 5262, 5263, 5264, 5265
5266, 5267, 5268, 5269, 5270, 5271, 5272, 5273, 5274, 5275, 5276, 5277, 5278, 5279, 5280, 5281
5282, 5283, 5284, 5285, 5286, 5287, 5288, 5289, 5290, 5291, 5292, 5293, 5294, 5295, 5296, 5297
5298, 5299, 5300, 5301, 5302, 5303, 5304, 5305, 5306, 5307, 5308, 5309, 5310, 5311, 5312, 5313
5314, 5315, 5316, 5317, 5318, 5319, 5320, 5321, 5322, 5323, 5324, 5325, 5326, 5327, 5328, 5329
5330, 5331, 5332, 5333, 5334, 5335, 5336, 5337, 5338, 5339, 5340, 5341, 5342, 5343, 5344, 5345
5346, 5347, 5348, 5349, 5350, 5351, 5352, 5353, 5354, 5355, 5356, 5357, 5358, 5359, 5360, 5361
5362, 5363, 5364, 5365, 5366, 5367, 5368, 5369, 5370, 5371, 5372, 5373, 5374, 5375, 5376, 5377
5378, 5379, 5380, 5381, 5382, 5383, 5384, 5385, 5386, 5387, 5388, 5389, 5390, 5391, 5392, 5393
5394, 5395, 5396, 5397, 5398, 5399, 5400, 5401, 5402, 5403, 5404, 5405, 5406, 5407, 5408, 5409
5410, 5411, 5412, 5413, 5414, 5415, 5416, 5417, 5418, 5419, 5420, 5421, 5422, 5423, 5424, 5425
5426, 5427, 5428, 5429, 5430, 5431, 5432, 5433, 5434, 5435, 5436, 5437, 5438, 5439, 5440, 5441
5442, 5443, 5444, 5445, 5446, 5447, 5448, 5449, 5450, 5451, 5452, 5453, 5454, 5455, 5456, 5457
5458, 5459, 5460, 5461, 5462, 5463, 5464, 5465, 5466, 5467, 5468, 5469, 5470, 5471, 5472, 5473
5474, 5475, 5476, 5477, 5478, 5479, 5480, 5481, 5482, 5483, 5484, 5485, 5486, 5487, 5488, 5489
5490, 5491, 5492, 5493, 5494, 5495, 5496, 5497, 5498, 5499, 5500, 5501, 5502, 5503, 5504, 5505
5506, 5507, 5508, 5509, 5510, 5511, 5512, 5513, 5514, 5515, 5516, 5517, 5518, 5519, 5520, 5521
5522, 5523, 5524, 5525, 5526, 5527, 5528, 5529, 5530, 5531, 5532, 5533, 5534, 5535, 5536, 5537
5538, 5539, 5540, 5541, 5542, 5543, 5544, 5545, 5546, 5547, 5548, 5549, 5550, 5551, 5552, 5553
5554, 5555, 5556, 5557, 5558, 5559, 5560, 5561, 5562, 5563, 5564, 5565, 5566, 5567, 5568, 5569
5570, 5571, 5572, 5573, 5574, 5575, 5576, 5577, 5578, 5579, 5580, 5581, 5582, 5583, 5584, 5585
5586, 5587, 5588, 5589, 5590, 5591, 5592, 5593, 5594, 5595, 5596, 5597, 5598, 5599, 5600, 5601
5602, 5603, 5604, 5605, 5606, 5607, 5608, 5609, 5610, 5611, 5612, 5613, 5614, 5615, 5616, 5617
5618, 5619, 5620, 5621, 5622, 5623, 5624, 5625, 5626, 5627, 5628, 5629, 5630, 5631, 5632, 5633
5634, 5635, 5636, 5637, 5638, 5639, 5640, 5641, 5642, 5643, 5644, 5645, 5646, 5647, 5648, 5649
5650, 5651, 5652, 5653, 5654, 5655, 5656, 5657, 5658, 5659, 5660, 5661, 5662, 5663, 5664, 5665
5666, 5667, 5668, 5669, 5670, 5671, 5672, 5673, 5674, 5675, 5676, 5677, 5678, 5679, 5680, 5681
5682, 5683, 5684, 5685, 5686, 5687, 5688, 5689, 5690, 5691, 5692, 5693, 5694, 5695, 5696, 5697
5698, 5699, 5700, 5701, 5702, 5703, 5704, 5705, 5706, 5707, 5708, 5709, 5710, 5711, 5712, 5713
5714, 5715, 5716, 5717, 5718, 5719, 5720, 5721, 5722, 5723, 5724, 5725, 5726, 5727, 5728, 5729
5730, 5731, 5732, 5733, 5734, 5735, 5736, 5737, 5738, 5739, 5740, 5741, 5742, 5743, 5744, 5745
5746, 5747, 5748, 5749, 5750, 5751, 5752, 5753, 5754, 5755, 5756, 5757, 5758, 5759, 5760, 5761
5762, 5763, 5764, 5765, 5766, 5767, 5768, 5769, 5770, 5771, 5772, 5773, 5774, 5775, 5776, 5777
5778, 5779, 5780, 5781, 5782, 5783, 5784, 5785, 5786, 5787, 5788, 5789, 5790, 5791, 5792, 5793
5794, 5795, 5796, 5797, 5798, 5799, 5800, 5801, 5802, 5803, 5804, 5805, 5806, 5807, 5808, 5809
5810, 5811, 5812, 5813, 5814, 5815, 5816, 5817, 5818, 5819, 5820, 5821, 5822, 5823, 5824, 5825
5826, 5827, 5828, 5829, 5830, 5831, 5832, 5833, 5834, 5835, 5836, 5837, 5838, 5839, 5840, 5841
5842, 5843, 5844, 5845, 5846, 5847, 5848, 5849, 5850, 5851, 5852, 5853, 5854, 5855, 5856, 5857
5858, 5859, 5860, 5861, 5862, 5863, 5864, 5865, 5866, 5867, 5868, 5869, 5870, 5871, 5872, 5873
5874, 5875, 5876, 5877, 5878, 5879, 5880, 5881, 5882, 5883, 5884, 5885, 5886, 5887, 5888, 5889
5890, 5891, 5892, 5893, 5894, 5895, 5896, 5897, 5898, 5899, 5900, 5901, 5902, 5903, 5904, 5905
5906, 5907, 5908, 5909, 5910, 5911, 5912, 5913, 5914, 5915, 5916, 5917, 5918, 5919, 5920, 5921
5922, 5923, 5924, 5925, 5926, 5927, 5928, 5929, 5930, 5931, 5932, 5933, 5934, 5935, 5936, 5937
5938, 5939, 5940, 5941, 5942, 5943, 5944, 5945, 5946, 5947, 5948, 5949, 5950, 5951, 5952, 5953
5954, 5955, 5956, 5957, 5958, 5959, 5960, 5961, 5962, 5963, 5964, 5965, 5966, 5967, 5968, 5969
5970, 5971, 5972, 5973, 5974, 5975, 5976, 5977, 5978, 5979, 5980, 5981, 5982, 5983, 5984, 5985
5986, 5987, 5988, 5989, 5990, 5991, 5992, 5993, 5994, 5995, 5996, 5997, 5998, 5999, 6000, 6001
6002, 6003, 6004, 6005, 6006, 6007, 6008, 6009, 6010, 6011, 6012, 6013, 6014, 6015, 6016, 6017
6018, 6019, 6020, 6021, 6022, 6023, 6024, 6025, 6026, 6027, 6028, 6029, 6030, 6031, 6032, 6033
6034, 6035, 6036, 6037, 6038, 6039, 6040, 6041, 6042, 6043, 6044, 6045, 6046, 6047, 6048, 6049
6050, 6051, 6052, 6053, 6054, 6055, 6056, 6057, 6058, 6059, 6060, 6061, 6062, 6063, 6064, 6065
6066, 6067, 6068, 6069, 6070, 6071, 6072, 6073, 6074, 6075, 6076, 6077, 6078, 6079, 6080, 6081
6082, 6083, 6084, 6085, 6086, 6087, 6088, 6089, 6090, 6091, 6092, 6093, 6094, 6095, 6096, 6097
6098, 6099, 6100, 6101, 6102, 6103, 6104, 6105, 6106, 6107, 6108, 6109, 6110, 6111, 6112, 6113
6114, 6115, 6116, 6117, 6118, 6119, 6120, 6121, 6122, 6123, 6124, 6125, 6126, 6127, 6128, 6129
6130, 6131, 6132, 6133, 6134, 6135, 6136, 6137, 6138, 6139, 6140, 6141, 6142, 6143, 6144, 6145
6146, 6147, 6148, 6149, 6150, 6151, 6152, 6153, 6154, 6155, 6156, 6157, 6158, 6159, 6160, 6161
6162, 6163, 6164, 6165, 6166, 6167, 6168, 6169, 6170, 6171, 6172, 6173, 6174, 6175, 6176, 6177
6178, 6179, 6180, 6181, 6182, 6183, 6184, 6185, 6186, 6187, 6188, 6189, 6190, 6191, 6192, 6193
6194, 6195, 6196, 6197, 6198, 6199, 6200, 6201, 6202, 6203, 6204, 6205, 6206, 6207, 6208, 6209
6210, 6211, 6212, 6213, 6214, 6215, 6216, 6217, 6218, 6219, 6220, 6221, 6222, 6223, 6224, 6225
6226, 6227, 6228, 6229, 6230, 6231, 6232, 6233, 6234, 6235, 6236, 6237, 6238, 6239, 6240, 6241
6242, 6243, 6244, 6245, 6246, 6247, 6248, 6249, 6250, 6251, 6252, 6253, 6254, 6255, 6256, 6257
6258, 6259, 6260, 6261, 6262, 6263, 6264, 6265, 6266, 6267, 6268, 6269, 6270, 6271, 6272, 6273
6274, 6275, 6276, 6277, 6278, 6279, 6280, 6281, 6282, 6283, 6284, 6285, 6286, 6287, 6288, 6289
6290, 6291, 6292, 6293, 6294, 6295, 6296, 6297, 6298, 6299, 6300, 6301, 6302, 6303, 6304, 6305
6306, 6307, 6308, 6309, 6310, 6311, 6312, 6313, 6314, 6315, 6316, 6317, 6318, 6319, 6320, 6321
6322, 6323, 6324, 6325, 6326, 6327, 6328, 6329, 6330, 6331, 6332, 6333, 6334, 6335, 6336, 6337
6338, 6339, 6340, 6341, 6342, 6343, 6344, 6345, 6346, 6347, 6348, 6349, 6350, 6351, 6352, 6353
6354, 6355, 6356, 6357, 6358, 6359, 6360, 6361, 6362, 6363, 6364, 6365, 6366, 6367, 6368, 6369
6370, 6371, 6372, 6373, 6374, 6375, 6376, 6377, 6378, 6379, 6380, 6381, 6382, 6383, 6384, 6385
6386, 6387, 6388, 6389, 6390, 6391, 6392, 6393, 6394, 6395, 6396, 6397, 6398, 6399, 6400, 6401
6402, 6403, 6404, 6405, 6406, 6407, 6408, 6409, 6410, 6411, 6412, 6413, 6414, 6415, 6416, 6417
6418, 6419, 6420, 6421, 6422, 6423, 6424, 6425, 6426, 6427, 6428, 6429, 6430, 6431, 6432, 6433
6434, 6435, 6436, 6437, 6438, 6439, 6440, 6441, 6442, 6443, 6444, 6445, 6446, 6447, 6448, 6449
6450, 6451, 6452, 6453, 6454, 6455, 6456, 6457, 6458, 6459, 6460, 6461, 6462, 6463, 6464, 6465
6466, 6467, 6468, 6469, 6470, 6471, 6472, 6473, 6474, 6475, 6476, 6477, 6478, 6479, 6480, 6481
6482, 6483, 6484, 6485, 6486, 6487, 6488, 6489, 6490, 6491, 6492, 6493, 6494, 6495, 6496, 6497
6498, 6499, 6500, 6501, 6502, 6503, 6504, 6505, 6506, 6507, 6508, 6509, 6510, 6511, 6512, 6513
6514, 6515, 6516, 6517, 6518, 6519, 6520, 6521, 6522, 6523, 6524, 6525, 6526, 6527, 6528, 6529
6530, 6531, 6532, 6533, 6534, 6535, 6536, 6537, 6538, 6539, 6540, 6541, 6542, 6543, 6544, 6545
6546, 6547, 6548, 6549, 6550, 6551, 6552, 6553, 6554, 6555, 6556, 6557, 6558, 6559, 6560, 6561
6562, 6563, 6564, 6565, 6566, 6567, 6568, 6569, 6570, 6571, 6572, 6573, 6574, 6575, 6576, 6577
6578, 6579, 6580, 6581, 6582, 6583, 6584, 6585, 6586, 6587, 6588, 6589, 6590, 6591, 6592, 6593
6594, 6595, 6596, 6597, 6598, 6599, 6600, 6601, 6602, 6603, 6604, 6605, 6606, 6607, 6608, 6609
6610, 6611, 6612, 6613, 6614, 6615, 6616, 6617, 6618, 6619, 6620, 6621, 6622, 6623, 6624, 6625
6626, 6627, 6628, 6629, 6630, 6631, 6632, 6633, 6634, 6635, 6636, 6637, 6638, 6639, 6640, 6641
6642, 6643, 6644, 6645, 6646, 6647, 6648, 6649, 6650, 6651, 6652, 6653, 6654, 6655, 6656, 6657
6658, 6659, 6660, 6661, 6662, 6663, 6664, 6665, 6666, 6667, 6668, 6669, 6670, 6671, 6672, 6673
6674, 6675, 6676, 6677, 6678, 6679, 6680, 6681, 6682, 6683, 6684, 6685, 6686, 6687, 6688, 6689
6690, 6691, 6692, 6693, 6694, 6695, 6696, 6697, 6698, 6699, 6700, 6701, 6702, 6703, 6704, 6705
6706, 6707, 6708, 6709, 6710, 6711, 6712, 6713, 6714, 6715, 6716, 6717, 6718, 6719, 6720, 6721
6722, 6723, 6724, 6725, 6726, 6727, 6728, 6729, 6730, 6731, 6732, 6733, 6734, 6735, 6736, 6737
6738, 6739, 6740, 6741, 6742, 6743, 6744, 6745, 6746, 6747, 6748, 6749, 6750, 6751, 6752, 6753
6754, 6755, 6756, 6757, 6758, 6759, 6760, 6761, 6762, 6763, 6764, 6765, 6766, 6767, 6768, 6769
6770, 6771, 6772, 6773, 6774, 6775, 6776, 6777, 6778, 6779, 6780, 6781, 6782, 6783, 6784, 6785
6786, 6787, 6788, 6789, 6790, 6791, 6792, 6793, 6794, 6795, 6796, 6797, 6798, 6799, 6800, 6801
6802, 6803, 6804, 6805, 6806, 6807, 6808, 6809, 6810, 6811, 6812, 6813, 6814, 6815, 6816, 6817
6818, 6819, 6820, 6821, 6822, 6823, 6824, 6825, 6826, 6827, 6828, 6829, 6830, 6831, 6832, 6833
6834, 6835, 6836, 6837, 6838, 6839, 6840, 6841, 6842, 6843, 6844, 6845, 6846, 6847, 6848, 6849
6850, 6851, 6852, 6853, 6854, 6855, 6856, 6857, 6858, 6859, 6860, 6861, 6862, 6863, 6864, 6865
6866, 6867, 6868, 6869, 6870, 6871, 6872, 6873, 6874, 6875, 6876, 6877, 6878, 6879, 6880, 6881
6882, 6883, 6884, 6885, 6886, 6887, 6888, 6889, 6890, 6891, 6892, 6893, 6894, 6895, 6896, 6897
6898, 6899, 6900, 6901, 6902, 6903, 6904, 6905, 6906, 6907, 6908, 6909, 6910, 6911, 6912, 6913
6914, 6915, 6916, 6917, 6918, 6919, 6920, 6921, 6922, 6923, 6924, 6925, 6926, 6927, 6928, 6929
6930, 6931, 6932, 6933, 6934, 6935, 6936, 6937, 6938, 6939, 6940, 6941, 6942, 6943, 6944, 6945
6946, 6947, 6948, 6949, 6950, 6951, 6952, 6953, 6954, 6955, 6956, 6957, 6958, 6959, 6960, 6961
6962, 6963, 6964, 6965, 6966, 6967, 6968, 6969, 6970, 6971, 6972, 6973, 6974, 6975, 6976, 6977
6978, 6979, 6980, 6981, 6982, 6983, 6984, 6985, 6986, 6987, 6988, 6989, 6990, 6991, 6992, 6993
6994, 6995, 6996, 6997, 6998, 6999, 7000, 7001, 7002, 7003, 7004, 7005, 7006, 7007, 7008, 7009
7010, 7011, 7012, 7013, 7014, 7015, 7016, 7017, 7018, 7019, 7020, 7021, 7022, 7023, 7024, 7025
7026, 7027, 7028, 7029, 7030, 7031, 7032, 7033, 7034, 7035, 7036, 7037, 7038, 7039, 7040, 7041
7042, 7043, 7044, 7045, 7046, 7047, 7048, 7049, 7050, 7051, 7052, 7053, 7054, 7055, 7056, 7057
7058, 7059, 7060, 7061, 7062, 7063, 7064, 7065, 7066, 7067, 7068, 7069, 7070, 7071, 7072, 7073
7074, 7075, 7076, 7077, 7078, 7079, 7080, 7081, 7082, 7083, 7084, 7085, 7086, 7087, 7088, 7089
7090, 7091, 7092, 7093, 7094, 7095, 7096, 7097, 7098, 7099, 7100, 7101, 7102, 7103, 7104, 7105
7106, 7107, 7108, 7109, 7110, 7111, 7112, 7113, 7114, 7115, 7116, 7117, 7118, 7119, 7120, 7121
7122, 7123, 7124, 7125, 7126, 7127, 7128, 7129, 7130, 7131, 7132, 7133, 7134, 7135, 7136, 7137
7138, 7139, 7140, 7141, 7142, 7143, 7144, 7145, 7146, 7147, 7148, 7149, 7150, 7151, 7152, 7153
7154, 7155, 7156, 7157, 7158, 7159, 7160, 7161, 7162, 7163, 7164, 7165, 7166, 7167, 7168, 7169
7170, 7171, 7172, 7173, 7174, 7175, 7176, 7177, 7178, 7179, 7180, 7181, 7182, 7183, 7184, 7185
7186, 7187, 7188, 7189, 7190, 7191, 7192, 7193, 7194, 7195, 7196, 7197, 7198, 7199, 7200, 7201
7202, 7203, 7204, 7205, 7206, 7207, 7208, 7209, 7210, 7211, 7212, 7213, 7214, 7215, 7216, 7217
7218, 7219, 7220, 7221, 7222, 7223, 7224, 7225, 7226, 7227, 7228, 7229, 7230, 7231, 7232, 7233
7234, 7235, 7236, 7237, 7238, 7239, 7240, 7241, 7242, 7243, 7244, 7245, 7246, 7247, 7248, 7249
7250, 7251, 7252, 7253, 7254, 7255, 7256, 7257, 7258, 7259, 7260, 7261, 7262, 7263, 7264, 7265
7266, 7267, 7268, 7269, 7270, 7271, 7272, 7273, 7274, 7275, 7276, 7277, 7278, 7279, 7280, 7281
7282, 7283, 7284, 7285, 7286, 7287, 7288, 7289, 7290, 7291, 7292, 7293, 7294, 7295, 7296, 7297
7298, 7299, 7300, 7301, 7302, 7303, 7304, 7305, 7306, 7307, 7308, 7309, 7310, 7311, 7312, 7313
7314, 7315, 7316, 7317, 7318, 7319, 7320, 7321, 7322, 7323, 7324, 7325, 7326, 7327, 7328, 7329
7330, 7331, 7332, 7333, 7334, 7335, 7336, 7337, 7338, 7339, 7340, 7341, 7342, 7343, 7344, 7345
7346, 7347, 7348, 7349, 7350, 7351, 7352, 7353, 7354, 7355, 7356, 7357, 7358, 7359, 7360, 7361
7362, 7363, 7364, 7365, 7366, 7367, 7368, 7369, 7370, 7371, 7372, 7373, 7374, 7375, 7376, 7377
7378, 7379, 7380, 7381, 7382, 7383, 7384, 7385, 7386, 7387, 7388, 7389, 7390, 7391, 7392, 7393
7394, 7395, 7396, 7397, 7398, 7399, 7400, 7401, 7402, 7403, 7404, 7405, 7406, 7407, 7408, 7409
7410, 7411, 7412, 7413, 7414, 7415, 7416, 7417, 7418, 7419, 7420, 7421, 7422, 7423, 7424, 7425
7426, 7427, 7428, 7429, 7430, 7431, 7432, 7433, 7434, 7435, 7436, 7437, 7438, 7439, 7440, 7441
7442, 7443, 7444, 7445, 7446, 7447, 7448, 7449, 7450, 7451, 7452, 7453, 7454, 7455, 7456, 7457
7458, 7459, 7460, 7461, 7462, 7463, 7464, 7465, 7466, 7467, 7468, 7469, 7470, 7471, 7472, 7473
7474, 7475, 7476, 7477, 7478, 7479, 7480, 7481, 7482, 7483, 7484, 7485, 7486, 7487, 7488, 7489
7490, 7491, 7492, 7493, 7494, 7495, 7496, 7497, 7498, 7499, 7500, 7501, 7502, 7503, 7504, 7505
7506, 7507, 7508, 7509, 7510, 7511, 7512, 7513, 7514, 7515, 7516, 7517, 7518, 7519, 7520, 7521
7522, 7523, 7524, 7525, 7526, 7527, 7528, 7529, 7530, 7531, 7532, 7533, 7534, 7535, 7536, 7537
7538, 7539, 7540, 7541, 7542, 7543, 7544, 7545, 7546, 7547, 7548, 7549, 7550, 7551, 7552, 7553
7554, 7555, 7556, 7557, 7558, 7559, 7560, 7561, 7562, 7563, 7564, 7565, 7566, 7567, 7568, 7569
7570, 7571, 7572, 7573, 7574, 7575, 7576, 7577, 7578, 7579, 7580, 7581, 7582, 7583, 7584, 7585
7586, 7587, 7588, 7589, 7590, 7591, 7592, 7593, 7594, 7595, 7596, 7597, 7598, 7599, 7600, 7601
7602, 7603, 7604, 7605, 7606, 7607, 7608, 7609, 7610, 7611, 7612, 7613, 7614, 7615, 7616, 7617
7618, 7619, 7620, 7621, 7622, 7623, 7624, 7625, 7626, 7627, 7628, 7629, 7630, 7631, 7632, 7633
7634, 7635, 7636, 7637, 7638, 7639, 7640, 7641, 7642, 7643, 7644, 7645, 7646, 7647, 7648, 7649
7650, 7651, 7652, 7653, 7654, 7655, 7656, 7657, 7658, 7659, 7660, 7661, 7662, 7663, 7664, 7665
7666, 7667, 7668, 7669, 7670, 7671, 7672, 7673, 7674, 7675, 7676, 7677, 7678, 7679, 7680, 7681
7682, 7683, 7684, 7685, 7686, 7687, 7688, 7689, 7690, 7691, 7692, 7693, 7694, 7695, 7696, 7697
7698, 7699, 7700, 7701, 250, 251, 252, 253, 254, 255, 256, 257, 258, 259, 260, 261
262, 263, 264, 265, 266, 267, 268, 269, 270, 271, 272, 273, 274, 275, 276, 277
278, 279, 280, 281, 282, 283, 284, 285, 286, 287, 288, 289, 290, 291, 292, 293
294, 295, 296, 297, 298, 299, 300, 301, 302, 303, 304, 305, 306, 307, 308, 309
310, 311, 312, 313, 314, 315, 316, 317, 318, 319, 320, 321, 322, 323, 324, 325
326, 327, 328, 329, 330, 331, 332, 333, 334, 335, 336, 337, 338, 339, 340, 341
342, 343, 344, 345, 346, 347, 348, 349, 350, 351, 352, 353, 354, 355, 356, 357
358, 359, 360, 361, 362, 363, 364, 365, 366, 367, 368, 369, 370, 371, 372, 373
374, 375, 376, 377, 378, 379, 380, 381, 382, 383, 384, 385, 386, 387, 388, 389
390, 391, 392, 393, 394, 395, 396, 397, 398, 399, 400, 401, 402, 403, 404, 405
406, 407, 408, 409, 410, 411, 412, 413, 414, 415, 416, 417, 418, 419, 420, 421
422, 423, 424, 425, 426, 427, 428, 429, 430, 431, 432, 433, 434, 435, 436, 437
438, 439, 440, 441, 442, 443, 444, 445, 2852, 2853, 2854, 2855, 2856, 2857, 2858, 2859
2860, 2861, 2862, 2863, 2864, 2865, 2866, 2867, 2868, 2869, 2870, 2871, 2872, 2873, 2874, 2875
2876, 2877, 2878, 2879, 2880, 2881, 2882, 2883, 2884, 2885, 2886, 2887, 2888, 2889, 2890, 2891
2892, 2893, 2894, 2895, 2896, 2897, 2898, 2899, 2900, 2901, 2902, 2903, 2904, 2905, 2906, 2907
2908, 2909, 2910, 2911, 2912, 2913, 2914, 2915, 2916, 2917, 2918, 2919, 2920, 2921, 2922, 2923
2924, 2925, 2926, 2927, 2928, 2929, 2930, 2931, 2932, 2933, 2934, 2935, 2936, 2937, 2938, 2939
2940, 2941, 2942, 2943, 2944, 2945, 2946, 2947, 2948, 2949, 2950, 2951, 2952, 2953, 2954, 2955
2956, 2957, 2958, 2959, 2960, 2961, 2962, 2963, 2964, 2965, 2966, 2967, 2968, 2969, 2970, 2971
2972, 2973, 2974, 2975, 2976, 2977, 2978, 2979, 2980, 2981, 2982, 2983, 2984, 2985, 2986, 2987
2988, 2989, 2990, 2991, 2992, 2993, 2994, 2995, 2996, 2997, 2998, 2999, 3000, 3001, 3002, 3003
3004, 3005, 3006, 3007, 3008, 3009, 3010, 3011, 3012, 3013, 3014, 3015, 3016, 3017, 3018, 3019
3020, 3021, 3022, 3023, 3024, 3025, 3026, 3027, 3028, 3029, 3030, 3031, 3032, 3033, 3034, 3035
3036, 3037, 3038, 3039, 3040, 3041, 3042, 3043, 3044, 3045, 3046, 3047, 3048, 3049, 3050, 3051
3052, 3053, 3054, 3055, 3056, 3057, 3058, 3059, 3060, 3061, 3062, 3063, 3064, 3065, 3066, 3067
3068, 3069, 3070, 3071, 3072, 3073, 3074, 3075, 3076, 3077, 3078, 3079, 3080, 3081, 3082, 3083
3084, 3085, 3086, 3087, 3088, 3089, 3090, 3091, 3092, 3093, 3094, 3095, 3096, 3097, 3098, 3099
3100, 3101, 3102, 3103, 3104, 3105, 3106, 3107, 3108, 3109, 3110, 3111, 3112, 3113, 3114, 3115
3116, 3117, 3118, 3119, 3120, 3121, 3122, 3123, 3124, 3125, 3126, 3127, 3128, 3129, 3130, 3131
3132, 3133, 3134, 3135, 3136, 3137, 3138, 3139, 3140, 3141, 3142, 3143, 3144, 3145, 3146, 3147
3148, 3149, 3150, 3151, 3152, 3153, 3154, 3155, 3156, 3157, 3158, 3159, 3160, 3161, 3162, 3163
3164, 3165, 3166, 3167, 3168, 3169, 3170, 3171, 3172, 3173, 3174, 3175, 3176, 3177, 3178, 3179
3180, 3181, 3182, 3183, 3184, 3185, 3186, 3187, 3188, 3189, 3190, 3191, 3192, 3193, 3194, 3195
3196, 3197, 3198, 3199, 3200, 3201, 3202, 3203, 3204, 3205, 3206, 3207, 3208, 3209, 3210, 3211
3212, 3213, 3214, 3215, 3216, 3217, 3218, 3219, 3220, 3221, 3222, 3223, 3224, 3225, 3226, 3227
3228, 3229, 3230, 3231, 3232, 3233, 3234, 3235, 3236, 3237, 3238, 3239, 3240, 3241, 3242, 3243
3244, 3245, 3246, 3247, 3248, 3249, 3250, 3251, 3252, 3253, 3254, 3255, 3256, 3257, 3258, 3259
3260, 3261, 3262, 3263, 3264, 3265, 3266, 3267, 3268, 3269, 3270, 3271, 3272, 3273, 3274, 3275
3276, 3277, 3278, 3279, 3280, 3281, 3282, 3283, 3284, 3285, 3286, 3287, 3288, 3289, 3290, 3291
3292, 3293, 3294, 3295, 3296
*Elset, Elset=all
501, 502, 503, 504, 505, 506, 507, 508, 509, 510, 511, 512, 513, 514, 515, 516
517, 518, 519, 520, 521, 522, 523, 524, 525, 526, 527, 528, 529, 530, 531, 532
533, 534, 535, 536, 537, 538, 539, 540, 541, 542, 543, 544, 545, 546, 547, 548
549, 550, 551, 552, 553, 554, 555, 556, 557, 558, 559, 560, 561, 562, 563, 564
565, 566, 567, 568, 569, 570, 571, 572, 573, 574, 575, 576, 577, 578, 579, 580
581, 582, 583, 584, 585, 586, 587, 588, 589, 590, 591, 592, 593, 594, 595, 596
597, 598, 599, 600, 601, 602, 603, 604, 605, 606, 607, 608, 609, 610, 611, 612
613, 614, 615, 616, 617, 618, 619, 620, 621, 622, 623, 624, 625, 626, 627, 628
629, 630, 631, 632, 633, 634, 635, 636, 637, 638, 639, 640, 641, 642, 643, 644
645, 646, 647, 648, 649, 650, 651, 652, 653, 654, 655, 656, 657, 658, 659, 660
661, 662, 663, 664, 665, 666, 667, 668, 669, 670, 671, 672, 673, 674, 675, 676
677, 678, 679, 680, 681, 682, 683, 684, 685, 686, 687, 688, 689, 690, 691, 692
693, 694, 695, 696, 697, 698, 699, 700, 701, 702, 703, 704, 705, 706, 707, 708
709, 710, 711, 712, 713, 714, 715, 716, 717, 718, 719, 720, 721, 722, 723, 724
725, 726, 727, 728, 729, 730, 731, 732, 733, 734, 735, 736, 737, 738, 739, 740
741, 742, 743, 744, 745, 746, 747, 748, 749, 750, 751, 752, 753, 754, 755, 756
757, 758, 759, 760, 761, 762, 763, 764, 765, 766, 767, 768, 769, 770, 771, 772
773, 774, 775, 776, 777, 778, 779, 780, 781, 782, 783, 784, 785, 786, 787, 788
789, 790, 791, 792, 793, 794, 795, 796, 797, 798, 799, 800, 801, 802, 803, 804
805, 806, 807, 808, 809, 810, 811, 812, 813, 814, 815, 816, 817, 818, 819, 820
821, 822, 823, 824, 825, 826, 827, 828, 829, 830, 831, 832, 833, 834, 835, 836
837, 838, 839, 840, 841, 842, 843, 844, 845, 846, 847, 848, 849, 850, 851, 852
853, 854, 855, 856, 857, 858, 859, 860, 861, 862, 863, 864, 865, 866, 867, 868
869, 870, 871, 872, 873, 874, 875, 876, 877, 878, 879, 880, 881, 882, 883, 884
885, 886, 887, 888, 889, 890, 891, 892, 893, 894, 895, 896, 897, 898, 899, 900
901, 902, 903, 904, 905, 906, 907, 908, 909, 910, 911, 912, 913, 914, 915, 916
917, 918, 919, 920, 921, 922, 923, 924, 925, 926, 927, 928, 929, 930, 931, 932
933, 934, 935, 936, 937, 938, 939, 940, 941, 942, 943, 944, 945, 946, 947, 948
949, 950, 951, 952, 953, 954, 955, 956, 957, 958, 959, 960, 961, 962, 963, 964
965, 966, 967, 968, 969, 970, 971, 972, 973, 974, 975, 976, 977, 978, 979, 980
981, 982, 983, 984, 985, 986, 987, 988, 989, 990, 991, 992, 993, 994, 995, 996
997, 998, 999, 1000, 1001, 1002, 1003, 1004, 1005, 1006, 1007, 1008, 1009, 1010, 1011, 1012
1013, 1014, 1015, 1016, 1017, 1018, 1019, 1020, 1021, 1022, 1023, 1024, 1025, 1026, 1027, 1028
1029, 1030, 1031, 1032, 1033, 1034, 1035, 1036, 1037, 1038, 1039, 1040, 1041, 1042, 1043, 1044
1045, 1046, 1047, 1048, 1049, 1050, 1051, 1052, 1053, 1054, 1055, 1056, 1057, 1058, 1059, 1060
1061, 1062, 1063, 1064, 1065, 1066, 1067, 1068, 1069, 1070, 1071, 1072, 1073, 1074, 1075, 1076
1077, 1078, 1079, 1080, 1081, 1082, 1083, 1084, 1085, 1086, 1087, 1088, 1089, 1090, 1091, 1092
1093, 1094, 1095, 1096, 1097, 1098, 1099, 1100, 1101, 1102, 1103, 1104, 1105, 1106, 1107, 1108
1109, 1110, 1111, 1112, 1113, 1114, 1115, 1116, 1117, 1118, 1119, 1120, 1121, 1122, 1123, 1124
1125, 1126, 1127, 1128, 1129, 1130, 1131, 1132, 1133, 1134, 1135, 1136, 1137, 1138, 1139, 1140
1141, 1142, 1143, 1144, 1145, 1146, 1147, 1148, 1149, 1150, 1151, 1152, 1153, 1154, 1155, 1156
1157, 1158, 1159, 1160, 1161, 1162, 1163, 1164, 1165, 1166, 1167, 1168, 1169, 1170, 1171, 1172
1173, 1174, 1175, 1176, 1177, 1178, 1179, 1180, 1181, 1182, 1183, 1184, 1185, 1186, 1187, 1188
1189, 1190, 1191, 1192, 1193, 1194, 1195, 1196, 1197, 1198, 1199, 1200, 1201, 1202, 1203, 1204
1205, 1206, 1207, 1208, 1209, 1210, 1211, 1212, 1213, 1214, 1215, 1216, 1217, 1218, 1219, 1220
1221, 1222, 1223, 1224, 1225, 1226, 1227, 1228, 1229, 1230, 1231, 1232, 1233, 1234, 1235, 1236
1237, 1238, 1239, 1240, 1241, 1242, 1243, 1244, 1245, 1246, 1247, 1248, 1249, 1250, 1251, 1252
1253, 1254, 1255, 1256, 1257, 1258, 1259, 1260, 1261, 1262, 1263, 1264, 1265, 1266, 1267, 1268
1269, 1270, 1271, 1272, 1273, 1274, 1275, 1276, 1277, 1278, 1279, 1280, 1281, 1282, 1283, 1284
1285, 1286, 1287, 1288, 1289, 1290, 1291, 1292, 1293, 1294, 1295, 1296, 1297, 1298, 1299, 1300
1301, 1302, 1303, 1304, 1305, 1306, 1307, 1308, 1309, 1310, 1311, 1312, 1313, 1314, 1315, 1316
1317, 1318, 1319, 1320, 1321, 1322, 1323, 1324, 1325, 1326, 1327, 1328, 1329, 1330, 1331, 1332
1333, 1334, 1335, 1336, 1337, 1338, 1339, 1340, 1341, 1342, 1343, 1344, 1345, 1346, 1347, 1348
1349, 1350, 1351, 1352, 1353, 1354, 1355, 1356, 1357, 1358, 1359, 1360, 1361, 1362, 1363, 1364
1365, 1366, 1367, 1368, 1369, 1370, 1371, 1372, 1373, 1374, 1375, 1376, 1377, 1378, 1379, 1380
1381, 1382, 1383, 1384, 1385, 1386, 1387, 1388, 1389, 1390, 1391, 1392, 1393, 1394, 1395, 1396
1397, 1398, 1399, 1400, 1401, 1402, 1403, 1404, 1405, 1406, 1407, 1408, 1409, 1410, 1411, 1412
1413, 1414, 1415, 1416, 1417, 1418, 1419, 1420, 1421, 1422, 1423, 1424, 1425, 1426, 1427, 1428
1429, 1430, 1431, 1432, 1433, 1434, 1435, 1436, 1437, 1438, 1439, 1440, 1441, 1442, 1443, 1444
1445, 1446, 1447, 1448, 1449, 1450, 1451, 1452, 1453, 1454, 1455, 1456, 1457, 1458, 1459, 1460
1461, 1462, 1463, 1464, 1465, 1466, 1467, 1468, 1469, 1470, 1471, 1472, 1473, 1474, 1475, 1476
1477, 1478, 1479, 1480, 1481, 1482, 1483, 1484, 1485, 1486, 1487, 1488, 1489, 1490, 1491, 1492
1493, 1494, 1495, 1496, 1497, 1498, 1499, 1500, 1501, 1502, 1503, 1504, 1505, 1506, 1507, 1508
1509, 1510, 1511, 1512, 1513, 1514, 1515, 1516, 1517, 1518, 1519, 1520, 1521, 1522, 1523, 1524
1525, 1526, 1527, 1528, 1529, 1530, 1531, 1532, 1533, 1534, 1535, 1536, 1537, 1538, 1539, 1540
1541, 1542, 1543, 1544, 1545, 1546, 1547, 1548, 1549, 1550, 1551, 1552, 1553, 1554, 1555, 1556
1557, 1558, 1559, 1560, 1561, 1562, 1563, 1564, 1565, 1566, 1567, 1568, 1569, 1570, 1571, 1572
1573, 1574, 1575, 1576, 1577, 1578, 1579, 1580, 1581, 1582, 1583, 1584, 1585, 1586, 1587, 1588
1589, 1590, 1591, 1592, 1593, 1594, 1595, 1596, 1597, 1598, 1599, 1600, 1601, 1602, 1603, 1604
1605, 1606, 1607, 1608, 1609, 1610, 1611, 1612, 1613, 1614, 1615, 1616, 1617, 1618, 1619, 1620
1621, 1622, 1623, 1624, 1625, 1626, 1627, 1628, 1629, 1630, 1631, 1632, 1633, 1634, 1635, 1636
1637, 1638, 1639, 1640, 1641, 1642, 1643, 1644, 1645, 1646, 1647, 1648, 1649, 1650, 1651, 1652
1653, 1654, 1655, 1656, 1657, 1658, 1659, 1660, 1661, 1662, 1663, 1664, 1665, 1666, 1667, 1668
1669, 1670, 1671, 1672, 1673, 1674, 1675, 1676, 1677, 1678, 1679, 1680, 1681, 1682, 1683, 1684
1685, 1686, 1687, 1688, 1689, 1690, 1691, 1692, 1693, 1694, 1695, 1696, 1697, 1698, 1699, 1700
1701, 1702, 1703, 1704, 1705, 1706, 1707, 1708, 1709, 1710, 1711, 1712, 1713, 1714, 1715, 1716
1717, 1718, 1719, 1720, 1721, 1722, 1723, 1724, 1725, 1726, 1727, 1728, 1729, 1730, 1731, 1732
1733, 1734, 1735, 1736, 1737, 1738, 1739, 1740, 1741, 1742, 1743, 1744, 1745, 1746, 1747, 1748
1749, 1750, 1751, 1752, 1753, 1754, 1755, 1756, 1757, 1758, 1759, 1760, 1761, 1762, 1763, 1764
1765, 1766, 1767, 1768, 1769, 1770, 1771, 1772, 1773, 1774, 1775, 1776, 1777, 1778, 1779, 1780
1781, 1782, 1783, 1784, 1785, 1786, 1787, 1788, 1789, 1790, 1791, 1792, 1793, 1794, 1795, 1796
1797, 1798, 1799, 1800, 1801, 1802, 1803, 1804, 1805, 1806, 1807, 1808, 1809, 1810, 1811, 1812
1813, 1814, 1815, 1816, 1817, 1818, 1819, 1820, 1821, 1822, 1823, 1824, 1825, 1826, 1827, 1828
1829, 1830, 1831, 1832, 1833, 1834, 1835, 1836, 1837, 1838, 1839, 1840, 1841, 1842, 1843, 1844
1845, 1846, 1847, 1848, 1849, 1850, 1851, 1852, 1853, 1854, 1855, 1856, 1857, 1858, 1859, 1860
1861, 1862, 1863, 1864, 1865, 1866, 1867, 1868, 1869, 1870, 1871, 1872, 1873, 1874, 1875, 1876
1877, 1878, 1879, 1880, 1881, 1882, 1883, 1884, 1885, 1886, 1887, 1888, 1889, 1890, 1891, 1892
1893, 1894, 1895, 1896, 1897, 1898, 1899, 1900, 1901, 1902, 1903, 1904, 1905, 1906, 1907, 1908
1909, 1910, 1911, 1912, 1913, 1914, 1915, 1916, 1917, 1918, 1919, 1920, 1921, 1922, 1923, 1924
1925, 1926, 1927, 1928, 1929, 1930, 1931, 1932, 1933, 1934, 1935, 1936, 1937, 1938, 1939, 1940
1941, 1942, 1943, 1944, 1945, 1946, 1947, 1948, 1949, 1950, 1951, 1952, 1953, 1954, 1955, 1956
1957, 1958, 1959, 1960, 1961, 1962, 1963, 1964, 1965, 1966, 1967, 1968, 1969, 1970, 1971, 1972
1973, 1974, 1975, 1976, 1977, 1978, 1979, 1980, 1981, 1982, 1983, 1984, 1985, 1986, 1987, 1988
1989, 1990, 1991, 1992, 1993, 1994, 1995, 1996, 1997, 1998, 1999, 2000, 2001, 2002, 2003, 2004
2005, 2006, 2007, 2008, 2009, 2010, 2011, 2012, 2013, 2014, 2015, 2016, 2017, 2018, 2019, 2020
2021, 2022, 2023, 2024, 2025, 2026, 2027, 2028, 2029, 2030, 2031, 2032, 2033, 2034, 2035, 2036
2037, 2038, 2039, 2040, 2041, 2042, 2043, 2044, 2045, 2046, 2047, 2048, 2049, 2050, 2051, 2052
2053, 2054, 2055, 2056, 2057, 2058, 2059, 2060, 2061, 2062, 2063, 2064, 2065, 2066, 2067, 2068
2069, 2070, 2071, 2072, 2073, 2074, 2075, 2076, 2077, 2078, 2079, 2080, 2081, 2082, 2083, 2084
2085, 2086, 2087, 2088, 2089, 2090, 2091, 2092, 2093, 2094, 2095, 2096, 2097, 2098, 2099, 2100
2101, 2102, 2103, 2104, 2105, 2106, 2107, 2108, 2109, 2110, 2111, 2112, 2113, 2114, 2115, 2116
2117, 2118, 2119, 2120, 2121, 2122, 2123, 2124, 2125, 2126, 2127, 2128, 2129, 2130, 2131, 2132
2133, 2134, 2135, 2136, 2137, 2138, 2139, 2140, 2141, 2142, 2143, 2144, 2145, 2146, 2147, 2148
2149, 2150, 2151, 2152, 2153, 2154, 2155, 2156, 2157, 2158, 2159, 2160, 2161, 2162, 2163, 2164
2165, 2166, 2167, 2168, 2169, 2170, 2171, 2172, 2173, 2174, 2175, 2176, 2177, 2178, 2179, 2180
2181, 2182, 2183, 2184, 2185, 2186, 2187, 2188, 2189, 2190, 2191, 2192, 2193, 2194, 2195, 2196
2197, 2198, 2199, 2200, 2201, 2202, 2203, 2204, 2205, 2206, 2207, 2208, 2209, 2210, 2211, 2212
2213, 2214, 2215, 2216, 2217, 2218, 2219, 2220, 2221, 2222, 2223, 2224, 2225, 2226, 2227, 2228
2229, 2230, 2231, 2232, 2233, 2234, 2235, 2236, 2237, 2238, 2239, 2240, 2241, 2242, 2243, 2244
2245, 2246, 2247, 2248, 2249, 2250, 2251, 2252, 2253, 2254, 2255, 2256, 2257, 2258, 2259, 2260
2261, 2262, 2263, 2264, 2265, 2266, 2267, 2268, 2269, 2270, 2271, 2272, 2273, 2274, 2275, 2276
2277, 2278, 2279, 2280, 2281, 2282, 2283, 2284, 2285, 2286, 2287, 2288, 2289, 2290, 2291, 2292
2293, 2294, 2295, 2296, 2297, 2298, 2299, 2300, 2301, 2302, 2303, 2304, 2305, 2306, 2307, 2308
2309, 2310, 2311, 2312, 2313, 2314, 2315, 2316, 2317, 2318, 2319, 2320, 2321, 2322, 2323, 2324
2325, 2326, 2327, 2328, 2329, 2330, 2331, 2332, 2333, 2334, 2335, 2336, 2337, 2338, 2339, 2340
2341, 2342, 2343, 2344, 2345, 2346, 2347, 2348, 2349, 2350, 2351, 2352, 2353, 2354, 2355, 2356
2357, 2358, 2359, 2360, 2361, 2362, 2363, 2364, 2365, 2366, 2367, 2368, 2369, 2370, 2371, 2372
2373, 2374, 2375, 2376, 2377, 2378, 2379, 2380, 2381, 2382, 2383, 2384, 2385, 2386, 2387, 2388
2389, 2390, 2391, 2392, 2393, 2394, 2395, 2396, 2397, 2398, 2399, 2400, 2401, 2402, 2403, 2404
2405, 2406, 2407, 2408, 2409, 2410, 2411, 2412, 2413, 2414, 2415, 2416, 2417, 2418, 2419, 2420
2421, 2422, 2423, 2424, 2425, 2426, 2427, 2428, 2429, 2430, 2431, 2432, 2433, 2434, 2435, 2436
2437, 2438, 2439, 2440, 2441, 2442, 2443, 2444, 2445, 2446, 2447, 2448, 2449, 2450, 2451, 2452
2453, 2454, 2455, 2456, 2457, 2458, 2459, 2460, 2461, 2462, 2463, 2464, 2465, 2466, 2467, 2468
2469, 2470, 2471, 2472, 2473, 2474, 2475, 2476, 2477, 2478, 2479, 2480, 2481, 2482, 2483, 2484
2485, 2486, 2487, 2488, 2489, 2490, 2491, 2492, 2493, 2494, 2495, 2496, 2497, 2498, 2499, 2500
2501, 2502, 2503, 2504, 2505, 2506, 2507, 2508, 2509, 2510, 2511, 2512, 2513, 2514, 2515, 2516
2517, 2518, 2519, 2520, 2521, 2522, 2523, 2524, 2525, 2526, 2527, 2528, 2529, 2530, 2531, 2532
2533, 2534, 2535, 2536, 2537, 2538, 2539, 2540, 2541, 2542, 2543, 2544, 2545, 2546, 2547, 2548
2549, 2550, 2551, 2552, 2553, 2554, 2555, 2556, 2557, 2558, 2559, 2560, 2561, 2562, 2563, 2564
2565, 2566, 2567, 2568, 2569, 2570, 2571, 2572, 2573, 2574, 2575, 2576, 2577, 2578, 2579, 2580
2581, 2582, 2583, 2584, 2585, 2586, 2587, 2588, 2589, 2590, 2591, 2592, 2593, 2594, 2595, 2596
2597, 2598, 2599, 2600, 2601, 2602, 2603, 2604, 2605, 2606, 2607, 2608, 2609, 2610, 2611, 2612
2613, 2614, 2615, 2616, 2617, 2618, 2619, 2620, 2621, 2622, 2623, 2624, 2625, 2626, 2627, 2628
2629, 2630, 2631, 2632, 2633, 2634, 2635, 2636, 2637, 2638, 2639, 2640, 2641, 2642, 2643, 2644
2645, 2646, 2647, 2648, 2649, 2650, 2651, 2652, 2653, 2654, 2655, 2656, 2657, 2658, 2659, 2660
2661, 2662, 2663, 2664, 2665, 2666, 2667, 2668, 2669, 2670, 2671, 2672, 2673, 2674, 2675, 2676
2677, 2678, 2679, 2680, 2681, 2682, 2683, 2684, 2685, 2686, 2687, 2688, 2689, 2690, 2691, 2692
2693, 2694, 2695, 2696, 2697, 2698, 2699, 2700, 2701, 2702, 2703, 2704, 2705, 2706, 2707, 2708
2709, 2710, 2711, 2712, 2713, 2714, 2715, 2716, 2717, 2718, 2719, 2720, 2721, 2722, 2723, 2724
2725, 2726, 2727, 2728, 2729, 2730, 2731, 2732, 2733, 2734, 2735, 2736, 2737, 2738, 2739, 2740
2741, 2742, 2743, 2744, 2745, 2746, 2747, 2748, 2749, 2750, 251, 252, 253, 254, 255, 256
257, 258, 259, 260, 261, 262, 263, 264, 265, 266, 267, 268, 269, 270, 271, 272
273, 274, 275, 276, 277, 278, 279, 280, 281, 282, 283, 284, 285, 286, 287, 288
289, 290, 291, 292, 293, 294, 295, 296, 297, 298, 299, 300, 301, 302, 303, 304
305, 306, 307, 308, 309, 310, 311, 312, 313, 314, 315, 316, 317, 318, 319, 320
321, 322, 323, 324, 325, 326, 327, 328, 329, 330, 331, 332, 333, 334, 335, 336
337, 338, 339, 340, 341, 342, 343, 344, 345, 346, 347, 348, 349, 350, 351, 352
353, 354, 355, 356, 357, 358, 359, 360, 361, 362, 363, 364, 365, 366, 367, 368
369, 370, 371, 372, 373, 374, 375, 376, 377, 378, 379, 380, 381, 382, 383, 384
385, 386, 387, 388, 389, 390, 391, 392, 393, 394, 395, 396, 397, 398, 399, 400
401, 402, 403, 404, 405, 406, 407, 408, 409, 410, 411, 412, 413, 414, 415, 416
417, 418, 419, 420, 421, 422, 423, 424, 425, 426, 427, 428, 429, 430, 431, 432
433, 434, 435, 436, 437, 438, 439, 440, 441, 442, 443, 444, 445, 446, 447, 448
449, 450, 451, 452, 453, 454, 455, 456, 457, 458, 459, 460, 461, 462, 463, 464
465, 466, 467, 468, 469, 470, 471, 472, 473, 474, 475, 476, 477, 478, 479, 480
481, 482, 483, 484, 485, 486, 487, 488, 489, 490, 491, 492, 493, 494, 495, 496
497, 498, 499, 500
*Nset, Nset=top-load
4, 2657, 60, 2658, 61, 2659, 62, 2660, 63, 2661, 3
*Nset, Nset=top-left
4
*Elset, Elset=top-load-elements
300, 350, 400, 450, 500
*Solid Section, Elset=all, Material=Hardening-Soil-MN-Bricks
*End Part
**
** ASSEMBLY
**
** Assembly-level sets are deliberate aliases of the instance sets. This keeps
** the external references as Soil.all, Soil.left, Soil.right, etc.
*Assembly, name=Soil
*Instance, Name=Soil-1, Part=Soil
*End Instance
*Nset, Nset=bottom
Soil-1.bottom
*Nset, Nset=left
Soil-1.left
*Nset, Nset=right
Soil-1.right
*Nset, Nset=top
Soil-1.top
*Nset, Nset=all
Soil-1.all
*Nset, Nset=top-load
Soil-1.top-load
*Nset, Nset=top-left
Soil-1.top-left
*Elset, Elset=all
Soil-1.all
*Elset, Elset=top-load-elements
Soil-1.top-load-elements
*Surface, Type=ELEMENT, Name=surf_soil_top
Soil-1.top-load-elements, S2
*End Assembly
**
** MATERIAL
**
** The material name must match CMNAME checked explicitly by the supplied UMAT.
*Material, Name=Hardening-Soil-MN-Bricks
*Depvar
73
*User Material, constants=16, unsymm
30d3, 30d3, 90d3, 0.55, 0, 42, 16, 0.25
** pref, K0nc, Rf, Eiref, alpha, Hpp, gamma_07, G0
100, 0.4, 0.9, 65.5d3, 1.47, 41194, 2e-4, 108e3
*Density
1.7
**
** INITIAL CONDITIONS
**
*Initial conditions, Type=stress, geostatic
Soil.all, 0, 10, -170, 0, 0.4408, 0.4408
***Initial conditions, Type=solution, user
**
** AMPLITUDES
**
*Amplitude, Name=LoadingRamp
0.0, 0.0, 1.0, 1.0
**
** LOAD STEP 1
**
*Step, Name=step1, inc=1, unsymm=yes
*Geostatic
*DLoad
Soil.all, GRAV, 10.0, 0.0, -1.0
*Boundary
Soil.left, 1, 1, 0.0
Soil.right, 1, 1, 0.0
Soil.bottom, 1, 2, 0.0
*Output, field, frequency=1
*Node Output, Nset=Soil.all
U
*Element Output, Elset=Soil.all
S, E
*Controls, parameters=field, field=displacement
0.05, 0.1, , , , , , 
,0.001
*End Step
**
** LOAD STEP 2
**
*Step, Name=step2, inc=10000, unsymm=yes
*Static
0.001, 1.0, 0.0001, 0.005
*Boundary
Soil.left, 1, 1, 0.0
Soil.right, 1, 1, 0.0
Soil.bottom, 1, 2, 0.0
*DSload, amplitude=LoadingRamp
Soil.surf_soil_top, P, 1000.0
*Output, field, frequency=1
*Node Output, Nset=Soil.all
U
*Element Output, Elset=Soil.all
S, E
*Output, history, frequency=1
*Node Output, Nset=Soil.top-left
U
*End Step
